N = 65536; H = 64;
next = array1d(0..N-1, [0,1,2,3,4,5,22,247,8,9,266,3851,12,13,4110,61455,16,17,18,19,17,21,38,7,16,25,282,3867,16,29,4126,61471,32,33,34,35,34,37,54,23,32,41,298,3883,32,45,4142,61487,48,49,50,51,51,53,70,39,48,57,314,3899,48,61,4158,61503,0,17,68,68,68,84,84,52,8,153,324,3908,12,212,4164,61508,80,81,82,83,85,85,102,71,80,89,346,3931,80,93,4190,61535,112,113,114,115,118,117,118,119,112,121,378,3963,112,125,4222,61567,96,97,98,99,103,101,102,103,96,105,362,3947,96,109,4206,61551,128,385,128,128,2180,1408,144,112,136,2441,384,3968,140,3456,4224,61568,144,145,146,147,153,149,166,135,144,153,410,3995,144,157,4254,61599,416,417,418,419,426,421,438,407,416,425,426,427,416,429,4526,61871,4016,4017,4018,4019,4027,4021,4038,4007,4016,4025,4026,4027,4016,4029,8126,65471,192,4289,192,192,49348,20672,208,176,200,37065,448,4032,204,53440,4288,61632,208,209,210,211,221,213,230,199,208,217,474,4059,208,221,4318,61663,4320,4321,4322,4323,4334,4325,4342,4311,4320,4329,4586,8171,4320,4333,4334,4335,61680,61681,61682,61683,61695,61685,61446,61671,61680,61689,61946,65531,61680,61693,61694,61695,256,257,258,259,256,261,278,503,257,265,522,11,256,269,4366,61711,272,273,275,274,273,277,294,263,273,281,538,27,272,285,4382,61727,288,289,291,292,290,294,311,280,289,297,555,44,288,302,4399,61728,304,305,305,306,307,308,325,294,305,313,569,58,304,316,4413,61758,256,324,324,324,324,324,340,308,280,324,580,68,268,324,4420,61764,336,337,339,338,341,341,358,327,337,345,602,91,336,349,4446,61791,368,369,371,370,374,373,374,375,369,377,634,123,368,381,4478,61823,352,353,355,354,359,357,358,359,353,361,618,107,352,365,4462,61807,128,385,385,385,2180,385,401,369,392,385,641,129,140,385,4481,61825,400,401,403,402,409,405,422,391,401,409,666,155,400,413,4510,61855,672,673,675,674,682,677,694,663,673,681,682,683,672,685,4782,62127,176,177,179,178,187,181,198,167,177,185,186,187,176,189,4286,61631,448,448,448,448,49604,448,464,432,4552,448,704,192,460,448,4544,61888,464,465,467,466,477,469,486,455,465,473,730,219,464,477,4574,61919,4576,4577,4579,4578,4590,4581,4598,4567,4577,4585,4842,4331,4576,4589,4590,4591,61936,61937,61939,61938,61951,61941,61702,61927,61937,61945,62202,61691,61936,61949,61950,61951,513,513,514,515,517,517,534,759,521,521,778,267,525,525,4622,61967,528,530,531,532,529,534,551,520,530,538,795,284,528,542,4639,61968,544,545,547,548,546,550,567,536,546,553,811,300,544,558,4655,61984,560,561,563,564,563,566,583,552,562,569,827,316,560,574,4671,62000,513,580,580,580,581,580,596,564,553,580,836,324,525,580,4676,62020,592,593,595,596,597,598,615,584,594,601,859,348,592,606,4703,62032,624,625,627,628,630,630,631,632,626,633,891,380,624,638,4735,62064,608,609,611,612,615,614,615,616,610,617,875,364,608,622,4719,62048,129,642,642,642,2181,642,658,626,649,642,898,386,141,642,4738,62082,656,658,659,660,665,662,679,648,658,666,923,412,656,670,4767,62096,928,929,931,932,938,934,951,920,930,937,939,940,928,942,5039,62368,432,433,435,436,443,438,455,424,434,441,443,444,432,446,4543,61872,705,704,704,704,49861,704,720,688,8905,704,960,448,717,704,4800,62144,720,721,723,724,733,726,743,712,722,729,987,476,720,734,4831,62160,4832,4833,4835,4836,4846,4838,4855,4824,4834,4841,5099,4588,4832,4846,4847,4832,62192,62193,62195,62196,62207,62198,61959,62184,62194,62201,62459,61948,62192,62206,62207,62192,783,769,770,771,771,773,790,1015,775,777,1034,523,779,781,4878,62223,784,784,785,786,785,788,805,774,787,792,1049,538,784,796,4893,62238,800,801,801,802,802,804,821,790,803,809,1065,554,800,812,4909,62254,816,817,817,818,819,820,837,806,819,825,1081,570,816,828,4925,62270,783,836,836,836,835,836,852,820,823,836,1092,580,779,836,4932,62276,848,849,849,850,853,852,869,838,851,857,1113,602,848,860,4957,62302,880,881,881,882,886,884,885,886,883,889,1145,634,880,892,4989,62334,864,865,865,866,871,868,869,870,867,873,1129,618,864,876,4973,62318,143,899,899,899,2179,899,915,883,903,899,1155,643,139,899,4995,62339,912,912,913,914,921,916,933,902,915,920,1177,666,912,924,5021,62366,1184,1185,1185,1186,1194,1188,1205,1174,1187,1193,1193,1194,1184,1196,5293,62638,688,689,689,690,699,692,709,678,691,697,697,698,688,700,4797,62142,975,960,960,960,50115,960,976,944,13255,960,1216,704,971,960,5056,62400,976,977,977,978,989,980,997,966,979,985,1241,730,976,988,5085,62430,5088,5089,5089,5090,5102,5092,5109,5078,5091,5097,5353,4842,5088,5100,5101,5102,62448,62449,62449,62450,62463,62452,62213,62438,62451,62457,62713,62202,62448,62460,62461,62462,1024,1040,1059,1074,1024,1104,1126,1143,1024,1168,1450,955,1024,1232,5358,62719,1024,1041,1041,1041,1044,1041,1057,1025,1096,1041,1297,785,1036,1041,5137,62481,1025,1058,1058,1058,1061,1058,1074,1042,1097,1058,1314,802,1037,1058,5154,62498,1039,1075,1075,1075,1075,1075,1091,1059,1095,1075,1331,819,1035,1075,5171,62515,1028,1044,1091,1090,1092,1092,1094,1095,1092,1172,1354,843,1028,1092,5198,62543,1024,1109,1109,1109,1108,1109,1125,1093,1096,1109,1365,853,1036,1109,5205,62549,1024,1142,1142,1142,1124,1142,1142,1142,1096,1142,1398,886,1036,1142,5238,62582,1024,1127,1127,1127,1140,1127,1127,1127,1096,1127,1383,871,1036,1127,5223,62567,136,328,1091,1090,2184,1352,1094,1095,1160,2376,1354,843,136,3400,5198,62543,1024,1177,1177,1177,1172,1177,1193,1161,1096,1177,1433,921,1036,1177,5273,62617,1280,1450,1450,1450,1444,1450,1466,1434,1352,1450,1450,1450,1292,1450,5546,62890,768,955,955,955,948,955,971,939,840,955,955,955,780,955,5051,62395,1228,5132,1027,1026,50380,21516,1030,1031,17612,37900,1290,779,1228,54284,5134,62479,1024,1245,1245,1245,1236,1245,1261,1229,1096,1245,1501,989,1036,1245,5341,62685,5120,5358,5358,5358,5348,5358,5374,5342,5192,5358,5614,5102,5132,5358,5358,5358,62464,62719,62719,62719,62708,62719,62479,62703,62536,62719,62975,62463,62476,62719,62719,62719,1280,1281,1282,1283,1280,1285,1302,1527,1285,1289,1546,1035,1280,1293,5390,62735,1296,1297,1299,1298,1297,1301,1318,1287,1301,1305,1562,1051,1296,1309,5406,62751,1312,1313,1315,1316,1314,1318,1335,1304,1317,1321,1579,1068,1312,1326,5423,62752,1328,1329,1329,1330,1331,1332,1349,1318,1333,1337,1593,1082,1328,1340,5437,62782,1280,1348,1348,1348,1348,1348,1364,1332,1368,1348,1604,1092,1292,1348,5444,62788,1360,1361,1363,1362,1365,1365,1382,1351,1365,1369,1626,1115,1360,1373,5470,62815,1392,1393,1395,1394,1398,1397,1398,1399,1397,1401,1658,1147,1392,1405,5502,62847,1376,1377,1379,1378,1383,1381,1382,1383,1381,1385,1642,1131,1376,1389,5486,62831,128,1413,1413,1413,2180,1413,1429,1397,1416,1413,1669,1157,140,1413,5509,62853,1424,1425,1427,1426,1433,1429,1446,1415,1429,1433,1690,1179,1424,1437,5534,62879,1696,1697,1699,1698,1706,1701,1718,1687,1701,1705,1706,1707,1696,1709,5806,63151,1200,1201,1203,1202,1211,1205,1222,1191,1205,1209,1210,1211,1200,1213,5310,62655,1472,1472,1472,1472,50628,1472,1488,1456,21960,1472,1728,1216,1484,1472,5568,62912,1488,1489,1491,1490,1501,1493,1510,1479,1493,1497,1754,1243,1488,1501,5598,62943,5600,5601,5603,5602,5614,5605,5622,5591,5605,5609,5866,5355,5600,5613,5614,5615,62960,62961,62963,62962,62975,62965,62726,62951,62965,62969,63226,62715,62960,62973,62974,62975,1552,1553,1554,1555,1552,1557,1558,1559,1558,1561,1818,1307,1552,1565,5662,63007,1568,1569,1571,1570,1569,1573,1574,1575,1574,1577,1834,1323,1568,1581,5678,63023,1584,1585,1587,1588,1586,1590,1591,1592,1590,1593,1851,1340,1584,1598,5695,63024,1600,1601,1601,1602,1603,1604,1605,1606,1606,1609,1865,1354,1600,1612,5709,63054,1616,1620,1620,1620,1620,1620,1620,1620,1624,1620,1876,1364,1628,1620,5716,63060,1632,1633,1635,1634,1637,1637,1638,1639,1638,1641,1898,1387,1632,1645,5742,63087,1648,1649,1651,1650,1654,1653,1654,1655,1654,1657,1914,1403,1648,1661,5758,63103,1664,1665,1667,1666,1671,1669,1670,1671,1670,1673,1930,1419,1664,1677,5774,63119,144,1686,1686,1686,2196,1686,1686,1686,1688,1686,1942,1430,156,1686,5782,63126,1696,1697,1699,1698,1705,1701,1702,1703,1702,1705,1962,1451,1696,1709,5806,63151,1968,1969,1971,1970,1978,1973,1974,1975,1974,1977,1978,1979,1968,1981,6078,63423,1472,1473,1475,1474,1483,1477,1478,1479,1478,1481,1482,1483,1472,1485,5582,62927,1744,1744,1744,1744,50900,1744,1744,1744,26328,1744,2000,1488,1756,1744,5840,63184,1760,1761,1763,1762,1773,1765,1766,1767,1766,1769,2026,1515,1760,1773,5870,63215,5872,5873,5875,5874,5886,5877,5878,5879,5878,5881,6138,5627,5872,5885,5886,5887,62976,62977,62979,62978,62991,62981,62982,62983,62982,62985,63242,62731,62976,62989,62990,62991,2032,2033,2034,2035,2032,2037,2038,2039,2039,2041,2298,1787,2032,2045,6142,63487,1792,1793,1795,1794,1793,1797,1798,1799,1799,1801,2058,1547,1792,1805,5902,63247,1808,1809,1811,1812,1810,1814,1815,1816,1815,1817,2075,1564,1808,1822,5919,63248,1824,1825,1825,1826,1827,1828,1829,1830,1831,1833,2089,1578,1824,1836,5933,63278,1840,1844,1844,1844,1844,1844,1844,1844,1848,1844,2100,1588,1852,1844,5940,63284,1856,1857,1859,1858,1861,1861,1862,1863,1863,1865,2122,1611,1856,1869,5966,63311,1872,1873,1875,1874,1878,1877,1878,1879,1879,1881,2138,1627,1872,1885,5982,63327,1888,1889,1891,1890,1895,1893,1894,1895,1895,1897,2154,1643,1888,1901,5998,63343,112,1911,1911,1911,2164,1911,1911,1911,1912,1911,2167,1655,124,1911,6007,63351,1920,1921,1923,1922,1929,1925,1926,1927,1927,1929,2186,1675,1920,1933,6030,63375,2192,2193,2195,2194,2202,2197,2198,2199,2199,2201,2202,2203,2192,2205,6302,63647,1696,1697,1699,1698,1707,1701,1702,1703,1703,1705,1706,1707,1696,1709,5806,63151,1968,1968,1968,1968,51124,1968,1968,1968,30648,1968,2224,1712,1980,1968,6064,63408,1984,1985,1987,1986,1997,1989,1990,1991,1991,1993,2250,1739,1984,1997,6094,63439,6096,6097,6099,6098,6110,6101,6102,6103,6103,6105,6362,5851,6096,6109,6110,6111,63456,63457,63459,63458,63471,63461,63462,63463,63463,63465,63722,63211,63456,63469,63470,63471,2056,264,515,770,2056,1288,1558,2039,2056,2312,2570,2827,2056,3336,7694,65295,16,2072,2072,2072,276,2072,2088,2056,2072,2072,2328,1816,28,2072,6168,63512,33,2088,2088,2088,549,2088,2104,2072,2089,2088,2344,1832,45,2088,6184,63528,63,2104,2104,2104,819,2104,2120,2088,2103,2104,2360,1848,59,2104,6200,63544,2056,1048,1091,1090,2120,1112,1110,1079,2184,1176,1098,1099,2056,1240,5198,62543,80,2136,2136,2136,1364,2136,2152,2120,2136,2136,2392,1880,92,2136,6232,63576,112,2168,2168,2168,1652,2168,2168,2168,2168,2168,2424,1912,124,2168,6264,63608,96,2152,2152,2152,1892,2152,2152,2152,2152,2152,2408,1896,108,2152,6248,63592,136,392,2179,2178,2184,2184,2198,2167,2184,2440,2186,2187,136,2184,6286,63631,144,2200,2200,2200,2452,2200,2216,2184,2200,2200,2456,1944,156,2200,6296,63640,160,2472,2472,2472,2724,2472,2488,2456,2216,2472,2472,2472,172,2472,6568,63912,176,1976,1976,1976,2996,1976,1992,1960,2232,1976,1976,1976,188,1976,6072,63416,2248,4296,195,194,51400,20680,214,183,35016,37064,202,203,2248,53448,4302,61647,208,2264,2264,2264,3540,2264,2280,2248,2264,2264,2520,2008,220,2264,6360,63704,4320,6376,6376,6376,7908,6376,6392,6360,6376,6376,6632,6120,4332,6376,6376,6376,61680,63736,63736,63736,65524,63736,63496,63720,63736,63736,63992,63480,61692,63736,63736,63736,2304,2305,2306,2307,2304,2309,2326,2551,2313,2313,2570,2059,2304,2317,6414,63759,2320,2321,2323,2322,2321,2325,2342,2311,2329,2329,2586,2075,2320,2333,6430,63775,2336,2337,2339,2340,2338,2342,2359,2328,2345,2345,2603,2092,2336,2350,6447,63776,2352,2353,2353,2354,2355,2356,2373,2342,2361,2361,2617,2106,2352,2364,6461,63806,2304,2372,2372,2372,2372,2372,2388,2356,2456,2372,2628,2116,2316,2372,6468,63812,2384,2385,2387,2386,2389,2389,2406,2375,2393,2393,2650,2139,2384,2397,6494,63839,2416,2417,2419,2418,2422,2421,2422,2423,2425,2425,2682,2171,2416,2429,6526,63871,2400,2401,2403,2402,2407,2405,2406,2407,2409,2409,2666,2155,2400,2413,6510,63855,128,2441,2441,2441,2180,2441,2457,2425,2440,2441,2697,2185,140,2441,6537,63881,2448,2449,2451,2450,2457,2453,2470,2439,2457,2457,2714,2203,2448,2461,6558,63903,2720,2721,2723,2722,2730,2725,2742,2711,2729,2729,2730,2731,2720,2733,6830,64175,2224,2225,2227,2226,2235,2229,2246,2215,2233,2233,2234,2235,2224,2237,6334,63679,2496,2496,2496,2496,51652,2496,2512,2480,39368,2496,2752,2240,2508,2496,6592,63936,2512,2513,2515,2514,2525,2517,2534,2503,2521,2521,2778,2267,2512,2525,6622,63967,6624,6625,6627,6626,6638,6629,6646,6615,6633,6633,6890,6379,6624,6637,6638,6639,63984,63985,63987,63986,63999,63989,63750,63975,63993,63993,64250,63739,63984,63997,63998,63999,2816,2817,2818,2819,2816,2821,2838,3063,2826,2825,2826,2827,2816,2829,6926,64271,2832,2833,2835,2834,2833,2837,2854,2823,2842,2841,2842,2843,2832,2845,6942,64287,2848,2849,2851,2852,2850,2854,2871,2840,2858,2857,2859,2860,2848,2862,6959,64288,2864,2865,2865,2866,2867,2868,2885,2854,2874,2873,2873,2874,2864,2876,6973,64318,2816,2884,2884,2884,2884,2884,2900,2868,2984,2884,2884,2884,2828,2884,6980,64324,2896,2897,2899,2898,2901,2901,2918,2887,2906,2905,2906,2907,2896,2909,7006,64351,2928,2929,2931,2930,2934,2933,2934,2935,2938,2937,2938,2939,2928,2941,7038,64383,2912,2913,2915,2914,2919,2917,2918,2919,2922,2921,2922,2923,2912,2925,7022,64367,2944,2954,2954,2954,2948,2954,2970,2938,2952,2954,2954,2954,2956,2954,7050,64394,2960,2961,2963,2962,2969,2965,2982,2951,2970,2969,2970,2971,2960,2973,7070,64415,2976,2977,2979,2978,2986,2981,2998,2967,2986,2985,2986,2987,2976,2989,7086,64431,2992,2993,2995,2994,3003,2997,3014,2983,3002,3001,3002,3003,2992,3005,7102,64447,3008,3008,3008,3008,52164,3008,3024,2992,43976,3008,3008,3008,3020,3008,7104,64448,3024,3025,3027,3026,3037,3029,3046,3015,3034,3033,3034,3035,3024,3037,7134,64479,7136,7137,7139,7138,7150,7141,7158,7127,7146,7145,7146,7147,7136,7149,7150,7151,64496,64497,64499,64498,64511,64501,64262,64487,64506,64505,64506,64507,64496,64509,64510,64511,2560,2561,2562,2563,2560,2565,2582,2807,2571,2569,2570,2571,2560,2573,6670,64015,2576,2577,2579,2578,2577,2581,2598,2567,2587,2585,2586,2587,2576,2589,6686,64031,2592,2593,2595,2596,2594,2598,2615,2584,2603,2601,2603,2604,2592,2606,6703,64032,2608,2609,2609,2610,2611,2612,2629,2598,2619,2617,2617,2618,2608,2620,6717,64062,2560,2628,2628,2628,2628,2628,2644,2612,2744,2628,2628,2628,2572,2628,6724,64068,2640,2641,2643,2642,2645,2645,2662,2631,2651,2649,2650,2651,2640,2653,6750,64095,2672,2673,2675,2674,2678,2677,2678,2679,2683,2681,2682,2683,2672,2685,6782,64127,2656,2657,2659,2658,2663,2661,2662,2663,2667,2665,2666,2667,2656,2669,6766,64111,2688,2699,2699,2699,2692,2699,2715,2683,2696,2699,2699,2699,2700,2699,6795,64139,2704,2705,2707,2706,2713,2709,2726,2695,2715,2713,2714,2715,2704,2717,6814,64159,2720,2721,2723,2722,2730,2725,2742,2711,2731,2729,2730,2731,2720,2733,6830,64175,2736,2737,2739,2738,2747,2741,2758,2727,2747,2745,2746,2747,2736,2749,6846,64191,2752,2752,2752,2752,51908,2752,2768,2736,47816,2752,2752,2752,2764,2752,6848,64192,2768,2769,2771,2770,2781,2773,2790,2759,2779,2777,2778,2779,2768,2781,6878,64223,6880,6881,6883,6882,6894,6885,6902,6871,6891,6889,6890,6891,6880,6893,6894,6895,64240,64241,64243,64242,64255,64245,64006,64231,64251,64249,64250,64251,64240,64253,64254,64255,3072,7168,11267,15362,3072,23552,27670,31991,3072,39936,44298,47883,3072,56320,60430,64527,3088,3088,3088,3088,7188,3088,3104,3072,52248,3088,3344,2832,3100,3088,7184,64528,3105,3104,3104,3104,11301,3104,3120,3088,52265,3104,3360,2848,3117,3104,7200,64544,3135,3120,3120,3120,15411,3120,3136,3104,52279,3120,3376,2864,3131,3120,7216,64560,3072,19472,19523,19522,3136,19536,19542,19511,3264,19600,19786,19275,3072,19664,19534,19535,3152,3152,3152,3152,23636,3152,3168,3136,52312,3152,3408,2896,3164,3152,7248,64592,3184,3184,3184,3184,27764,3184,3184,3184,52344,3184,3440,2928,3196,3184,7280,64624,3168,3168,3168,3168,31844,3168,3168,3168,52328,3168,3424,2912,3180,3168,7264,64608,128,49536,52355,52354,2176,50560,52374,52343,3200,51584,52618,52107,128,52608,52366,52367,3216,3216,3216,3216,40084,3216,3232,3200,52376,3216,3472,2960,3228,3216,7312,64656,3488,3488,3488,3488,44452,3488,3504,3472,52648,3488,3488,3488,3500,3488,7584,64928,2992,2992,2992,2992,48052,2992,3008,2976,52152,2992,2992,2992,3004,2992,7088,64432,3264,7360,3267,3266,52416,3264,3286,3255,52416,40128,3530,3019,3264,3264,3278,3279,3280,3280,3280,3280,56532,3280,3296,3264,52440,3280,3536,3024,3292,3280,7376,64720,3296,7392,7392,7392,60644,7392,7408,7376,52456,7392,7648,7136,3308,7392,7392,7392,3312,64752,64752,64752,64756,64752,64512,64736,52472,64752,65008,64496,3324,64752,64752,64752,3328,3329,3330,3331,3328,3333,3350,3575,3341,3337,3594,3083,3328,3341,7438,64783,3344,3345,3347,3346,3345,3349,3366,3335,3357,3353,3610,3099,3344,3357,7454,64799,3360,3361,3363,3364,3362,3366,3383,3352,3373,3369,3627,3116,3360,3374,7471,64800,3376,3377,3377,3378,3379,3380,3397,3366,3389,3385,3641,3130,3376,3388,7485,64830,3328,3396,3396,3396,3396,3396,3412,3380,3544,3396,3652,3140,3340,3396,7492,64836,3408,3409,3411,3410,3413,3413,3430,3399,3421,3417,3674,3163,3408,3421,7518,64863,3440,3441,3443,3442,3446,3445,3446,3447,3453,3449,3706,3195,3440,3453,7550,64895,3424,3425,3427,3426,3431,3429,3430,3431,3437,3433,3690,3179,3424,3437,7534,64879,128,3469,3469,3469,2180,3469,3485,3453,3464,3469,3725,3213,140,3469,7565,64909,3472,3473,3475,3474,3481,3477,3494,3463,3485,3481,3738,3227,3472,3485,7582,64927,3744,3745,3747,3746,3754,3749,3766,3735,3757,3753,3754,3755,3744,3757,7854,65199,3248,3249,3251,3250,3259,3253,3270,3239,3261,3257,3258,3259,3248,3261,7358,64703,3520,3520,3520,3520,52676,3520,3536,3504,56776,3520,3776,3264,3532,3520,7616,64960,3536,3537,3539,3538,3549,3541,3558,3527,3549,3545,3802,3291,3536,3549,7646,64991,7648,7649,7651,7650,7662,7653,7670,7639,7661,7657,7914,7403,7648,7661,7662,7663,65008,65009,65011,65010,65023,65013,64774,64999,65021,65017,65274,64763,65008,65021,65022,65023,7680,7681,7682,7683,7680,7685,7702,7927,7694,7689,7946,7435,7680,7693,7694,7695,7696,7697,7699,7698,7697,7701,7718,7687,7710,7705,7962,7451,7696,7709,7710,7711,7712,7713,7715,7716,7714,7718,7735,7704,7726,7721,7979,7468,7712,7726,7727,7712,7728,7729,7729,7730,7731,7732,7749,7718,7742,7737,7993,7482,7728,7740,7741,7742,7680,7748,7748,7748,7748,7748,7764,7732,7912,7748,8004,7492,7692,7748,7748,7748,7760,7761,7763,7762,7765,7765,7782,7751,7774,7769,8026,7515,7760,7773,7774,7775,7792,7793,7795,7794,7798,7797,7798,7799,7806,7801,8058,7547,7792,7805,7806,7807,7776,7777,7779,7778,7783,7781,7782,7783,7790,7785,8042,7531,7776,7789,7790,7791,4224,7822,7822,7822,6276,7822,7838,7806,7816,7822,8078,7566,4236,7822,7822,7822,7824,7825,7827,7826,7833,7829,7846,7815,7838,7833,8090,7579,7824,7837,7838,7839,8096,8097,8099,8098,8106,8101,8118,8087,8110,8105,8106,8107,8096,8109,8110,8111,7600,7601,7603,7602,7611,7605,7622,7591,7614,7609,7610,7611,7600,7613,7614,7615,7872,7872,7872,7872,7876,7872,7888,7856,7880,7872,8128,7616,7884,7872,7872,7872,7888,7889,7891,7890,7901,7893,7910,7879,7902,7897,8154,7643,7888,7901,7902,7903,7904,7905,7907,7906,7918,7909,7926,7895,7918,7913,8170,7659,7904,7917,7918,7919,7920,7921,7923,7922,7935,7925,7686,7911,7934,7929,8186,7675,7920,7933,7934,7935,65280,65281,65282,65283,65280,65285,65302,65527,65295,65289,61450,65035,65280,65293,65294,65295,65296,65297,65299,65298,65297,65301,65318,65287,65311,65305,61466,65051,65296,65309,65310,65311,65312,65313,65315,65316,65314,65318,65335,65304,65327,65321,61483,65068,65312,65326,65327,65312,65328,65329,65329,65330,65331,65332,65349,65318,65343,65337,61497,65082,65328,65340,65341,65342,65280,65348,65348,65348,65348,65348,65364,65332,65528,65348,61508,65092,65292,65348,65348,65348,65360,65361,65363,65362,65365,65365,65382,65351,65375,65369,61530,65115,65360,65373,65374,65375,65392,65393,65395,65394,65398,65397,65398,65399,65407,65401,61562,65147,65392,65405,65406,65407,65376,65377,65379,65378,65383,65381,65382,65383,65391,65385,61546,65131,65376,65389,65390,65391,61568,65423,65423,65423,63620,65423,65439,65407,65416,65423,61583,65167,61580,65423,65423,65423,65424,65425,65427,65426,65433,65429,65446,65415,65439,65433,61594,65179,65424,65437,65438,65439,61600,61601,61603,61602,61610,61605,61622,61591,61615,61609,61610,61611,61600,61613,61614,61615,65200,65201,65203,65202,65211,65205,65222,65191,65215,65209,65210,65211,65200,65213,65214,65215,65472,65472,65472,65472,65476,65472,65488,65456,65480,65472,61632,65216,65484,65472,65472,65472,65488,65489,65491,65490,65501,65493,65510,65479,65503,65497,61658,65243,65488,65501,65502,65503,65504,65505,65507,65506,65518,65509,65526,65495,65519,65513,61674,65259,65504,65517,65518,65519,65520,65521,65523,65522,65535,65525,65286,65511,65535,65529,61690,65275,65520,65533,65534,65535,4096,4097,4098,4099,4096,4101,4118,4343,4096,4105,4362,7947,4097,4109,8206,15,4112,4113,4115,4114,4113,4117,4134,4103,4112,4121,4378,7963,4113,4125,8222,31,4128,4129,4131,4132,4130,4134,4151,4120,4128,4137,4395,7980,4129,4142,8239,32,4144,4145,4145,4146,4147,4148,4165,4134,4144,4153,4409,7994,4145,4156,8253,62,4096,4164,4164,4164,4164,4164,4180,4148,4104,4164,4420,8004,4124,4164,8260,68,4176,4177,4179,4178,4181,4181,4198,4167,4176,4185,4442,8027,4177,4189,8286,95,4208,4209,4211,4210,4214,4213,4214,4215,4208,4217,4474,8059,4209,4221,8318,127,4192,4193,4195,4194,4199,4197,4198,4199,4192,4201,4458,8043,4193,4205,8302,111,4224,4224,4224,4224,6276,4224,4240,4208,4232,4224,4480,8064,4492,4224,8320,128,4240,4241,4243,4242,4249,4245,4262,4231,4240,4249,4506,8091,4241,4253,8350,159,4512,4513,4515,4514,4522,4517,4534,4503,4512,4521,4522,4523,4513,4525,8622,431,8112,8113,8115,8114,8123,8117,8134,8103,8112,8121,8122,8123,8113,8125,12222,4031,192,4289,4289,4289,49348,4289,4305,4273,200,4289,4545,8129,4300,4289,8385,193,4304,4305,4307,4306,4317,4309,4326,4295,4304,4313,4570,8155,4305,4317,8414,223,8416,8417,8419,8418,8430,8421,8438,8407,8416,8425,8682,12267,8417,8429,8430,8431,240,241,243,242,255,245,6,231,240,249,506,4091,241,253,254,255,4352,4353,4355,4354,4352,4357,4374,4599,4353,4361,4618,4107,4353,4365,8462,271,4368,4369,4371,4370,4372,4373,4390,4359,4376,4377,4634,4123,4380,4381,8478,287,4385,4386,4387,4388,4389,4390,4407,4376,4393,4394,4651,4140,4397,4398,8495,288,4415,4400,4401,4402,4403,4404,4421,4390,4407,4408,4665,4154,4411,4412,8509,318,4352,4417,4419,4418,4420,4421,4438,4407,4376,4425,4682,4171,4380,4429,8526,335,4432,4433,4435,4434,4436,4437,4454,4423,4440,4441,4698,4187,4444,4445,8542,351,4464,4465,4467,4466,4468,4469,4470,4471,4472,4473,4730,4219,4476,4477,8574,383,4448,4449,4451,4450,4452,4453,4454,4455,4456,4457,4714,4203,4460,4461,8558,367,4224,4481,4483,4482,6276,4485,4502,4471,4488,4489,4746,4235,4492,4493,8590,399,4496,4497,4499,4498,4500,4501,4518,4487,4504,4505,4762,4251,4508,4509,8606,415,4768,4769,4771,4770,4772,4773,4790,4759,4776,4777,4778,4779,4780,4781,8878,687,4272,4273,4275,4274,4276,4277,4294,4263,4280,4281,4282,4283,4284,4285,8382,191,448,4545,4547,4546,49604,4549,4566,4535,4552,4553,4810,4299,4556,4557,8654,463,4560,4561,4563,4562,4564,4565,4582,4551,4568,4569,4826,4315,4572,4573,8670,479,8672,8673,8675,8674,8676,8677,8694,8663,8680,8681,8938,8427,8684,8685,8686,8687,496,497,499,498,500,501,262,487,504,505,762,251,508,509,510,511,4609,4610,4611,4612,4613,4614,4631,4856,4617,4618,4875,4364,4621,4622,8719,512,4625,4626,4627,4628,4629,4630,4647,4616,4633,4634,4891,4380,4637,4638,8735,528,4641,4642,4643,4644,4645,4646,4663,4632,4649,4650,4907,4396,4653,4654,8751,544,4657,4658,4659,4660,4661,4662,4679,4648,4665,4666,4923,4412,4669,4670,8767,560,4609,4674,4675,4676,4677,4678,4695,4664,4649,4682,4939,4428,4637,4686,8783,576,4689,4690,4691,4692,4693,4694,4711,4680,4697,4698,4955,4444,4701,4702,8799,592,4721,4722,4723,4724,4725,4726,4727,4728,4729,4730,4987,4476,4733,4734,8831,624,4705,4706,4707,4708,4709,4710,4711,4712,4713,4714,4971,4460,4717,4718,8815,608,4225,4738,4739,4740,6277,4742,4759,4728,4745,4746,5003,4492,4493,4750,8847,640,4753,4754,4755,4756,4757,4758,4775,4744,4761,4762,5019,4508,4765,4766,8863,656,5025,5026,5027,5028,5029,5030,5047,5016,5033,5034,5035,5036,5037,5038,9135,928,4529,4530,4531,4532,4533,4534,4551,4520,4537,4538,4539,4540,4541,4542,8639,432,705,4802,4803,4804,49861,4806,4823,4792,8905,4810,5067,4556,4813,4814,8911,704,4817,4818,4819,4820,4821,4822,4839,4808,4825,4826,5083,4572,4829,4830,8927,720,8929,8930,8931,8932,8933,8934,8951,8920,8937,8938,9195,8684,8941,8942,8943,8928,753,754,755,756,757,758,519,744,761,762,1019,508,765,766,767,752,4879,4864,4865,4866,4867,4868,4885,5110,4871,4872,5129,4618,4875,4876,8973,782,4895,4880,4881,4882,4883,4884,4901,4870,4887,4888,5145,4634,4891,4892,8989,798,4911,4896,4897,4898,4899,4900,4917,4886,4903,4904,5161,4650,4907,4908,9005,814,4927,4912,4913,4914,4915,4916,4933,4902,4919,4920,5177,4666,4923,4924,9021,830,4879,4928,4929,4930,4931,4932,4949,4918,4919,4936,5193,4682,4891,4940,9037,846,4959,4944,4945,4946,4947,4948,4965,4934,4951,4952,5209,4698,4955,4956,9053,862,4991,4976,4977,4978,4979,4980,4981,4982,4983,4984,5241,4730,4987,4988,9085,894,4975,4960,4961,4962,4963,4964,4965,4966,4967,4968,5225,4714,4971,4972,9069,878,4239,4992,4993,4994,6275,4996,5013,4982,4999,5000,5257,4746,4491,5004,9101,910,5023,5008,5009,5010,5011,5012,5029,4998,5015,5016,5273,4762,5019,5020,9117,926,5295,5280,5281,5282,5283,5284,5301,5270,5287,5288,5289,5290,5291,5292,9389,1198,4799,4784,4785,4786,4787,4788,4805,4774,4791,4792,4793,4794,4795,4796,8893,702,975,5056,5057,5058,50115,5060,5077,5046,13255,5064,5321,4810,5067,5068,9165,974,5087,5072,5073,5074,5075,5076,5093,5062,5079,5080,5337,4826,5083,5084,9181,990,9199,9184,9185,9186,9187,9188,9205,9174,9191,9192,9449,8938,9195,9196,9197,9198,1023,1008,1009,1010,1011,1012,773,998,1015,1016,1273,762,1019,1020,1021,1022,5120,5137,5155,5170,5120,5205,5222,5239,5124,5273,5546,5051,5121,5341,9454,1279,5120,5137,5139,5138,5140,5141,5158,5127,5192,5145,5402,4891,5148,5149,9246,1055,5121,5154,5155,5156,5157,5158,5175,5144,5193,5162,5419,4908,5149,5166,9263,1056,5135,5168,5169,5170,5171,5172,5189,5158,5191,5176,5433,4922,5147,5180,9277,1086,5120,5185,5187,5186,5188,5189,5190,5191,5192,5193,5450,4939,5148,5197,9294,1103,5120,5201,5203,5202,5204,5205,5222,5191,5192,5209,5466,4955,5148,5213,9310,1119,5120,5217,5235,5234,5220,5237,5238,5239,5192,5225,5498,4987,5148,5245,9342,1151,5120,5233,5219,5218,5236,5221,5222,5223,5192,5241,5482,4971,5148,5229,9326,1135,4224,5185,5187,5186,6276,5189,5190,5191,5256,5193,5450,4939,4492,5197,9294,1103,5120,5265,5267,5266,5268,5269,5286,5255,5192,5273,5530,5019,5148,5277,9374,1183,5376,5537,5539,5538,5540,5541,5558,5527,5448,5545,5546,5547,5404,5549,9646,1455,4864,5041,5043,5042,5044,5045,5062,5031,4936,5049,5050,5051,4892,5053,9150,959,1216,5137,5139,5138,50372,5141,5142,5143,17608,5145,5402,4891,5324,5149,9246,1055,5120,5329,5331,5330,5332,5333,5350,5319,5192,5337,5594,5083,5148,5341,9438,1247,9216,9441,9443,9442,9444,9445,9462,9431,9288,9449,9706,9195,9244,9453,9454,9455,1024,1265,1267,1266,1268,1269,1030,1255,1096,1273,1530,1019,1052,1277,1278,1279,5376,5377,5379,5378,5376,5381,5398,5623,5381,5385,5642,5131,5377,5389,9486,1295,5392,5393,5395,5394,5396,5397,5414,5383,5400,5401,5658,5147,5404,5405,9502,1311,5409,5410,5411,5412,5413,5414,5431,5400,5417,5418,5675,5164,5421,5422,9519,1312,5439,5424,5425,5426,5427,5428,5445,5414,5431,5432,5689,5178,5435,5436,9533,1342,5376,5441,5443,5442,5444,5445,5462,5431,5464,5449,5706,5195,5404,5453,9550,1359,5456,5457,5459,5458,5460,5461,5478,5447,5464,5465,5722,5211,5468,5469,9566,1375,5488,5489,5491,5490,5492,5493,5494,5495,5496,5497,5754,5243,5500,5501,9598,1407,5472,5473,5475,5474,5476,5477,5478,5479,5480,5481,5738,5227,5484,5485,9582,1391,4224,5505,5507,5506,6276,5509,5526,5495,5512,5513,5770,5259,4492,5517,9614,1423,5520,5521,5523,5522,5524,5525,5542,5511,5528,5529,5786,5275,5532,5533,9630,1439,5792,5793,5795,5794,5796,5797,5814,5783,5800,5801,5802,5803,5804,5805,9902,1711,5296,5297,5299,5298,5300,5301,5318,5287,5304,5305,5306,5307,5308,5309,9406,1215,1472,5569,5571,5570,50628,5573,5590,5559,21960,5577,5834,5323,5580,5581,9678,1487,5584,5585,5587,5586,5588,5589,5606,5575,5592,5593,5850,5339,5596,5597,9694,1503,9696,9697,9699,9698,9700,9701,9718,9687,9704,9705,9962,9451,9708,9709,9710,9711,1520,1521,1523,1522,1524,1525,1286,1511,1528,1529,1786,1275,1532,1533,1534,1535,5648,5649,5651,5650,5648,5653,5654,5655,5654,5657,5914,5403,5649,5661,9758,1567,5664,5665,5667,5666,5668,5669,5670,5671,5672,5673,5930,5419,5676,5677,9774,1583,5681,5682,5683,5684,5685,5686,5687,5688,5689,5690,5947,5436,5693,5694,9791,1584,5711,5696,5697,5698,5699,5700,5701,5702,5703,5704,5961,5450,5707,5708,9805,1614,5712,5713,5715,5714,5716,5717,5718,5719,5720,5721,5978,5467,5724,5725,9822,1631,5728,5729,5731,5730,5732,5733,5734,5735,5736,5737,5994,5483,5740,5741,9838,1647,5744,5745,5747,5746,5748,5749,5750,5751,5752,5753,6010,5499,5756,5757,9854,1663,5760,5761,5763,5762,5764,5765,5766,5767,5768,5769,6026,5515,5772,5773,9870,1679,4240,5777,5779,5778,6292,5781,5782,5783,5784,5785,6042,5531,4508,5789,9886,1695,5792,5793,5795,5794,5796,5797,5798,5799,5800,5801,6058,5547,5804,5805,9902,1711,6064,6065,6067,6066,6068,6069,6070,6071,6072,6073,6074,6075,6076,6077,10174,1983,5568,5569,5571,5570,5572,5573,5574,5575,5576,5577,5578,5579,5580,5581,9678,1487,1744,5841,5843,5842,50900,5845,5846,5847,26328,5849,6106,5595,5852,5853,9950,1759,5856,5857,5859,5858,5860,5861,5862,5863,5864,5865,6122,5611,5868,5869,9966,1775,9968,9969,9971,9970,9972,9973,9974,9975,9976,9977,10234,9723,9980,9981,9982,9983,1536,1537,1539,1538,1540,1541,1542,1543,1544,1545,1802,1291,1548,1549,1550,1551,6128,6129,6131,6130,6128,6133,6134,6135,6135,6137,6394,5883,6129,6141,10238,2047,5888,5889,5891,5890,5892,5893,5894,5895,5896,5897,6154,5643,5900,5901,9998,1807,5905,5906,5907,5908,5909,5910,5911,5912,5913,5914,6171,5660,5917,5918,10015,1808,5935,5920,5921,5922,5923,5924,5925,5926,5927,5928,6185,5674,5931,5932,10029,1838,5936,5937,5939,5938,5940,5941,5942,5943,5944,5945,6202,5691,5948,5949,10046,1855,5952,5953,5955,5954,5956,5957,5958,5959,5960,5961,6218,5707,5964,5965,10062,1871,5968,5969,5971,5970,5972,5973,5974,5975,5976,5977,6234,5723,5980,5981,10078,1887,5984,5985,5987,5986,5988,5989,5990,5991,5992,5993,6250,5739,5996,5997,10094,1903,4208,6001,6003,6002,6260,6005,6006,6007,6008,6009,6266,5755,4476,6013,10110,1919,6016,6017,6019,6018,6020,6021,6022,6023,6024,6025,6282,5771,6028,6029,10126,1935,6288,6289,6291,6290,6292,6293,6294,6295,6296,6297,6298,6299,6300,6301,10398,2207,5792,5793,5795,5794,5796,5797,5798,5799,5800,5801,5802,5803,5804,5805,9902,1711,1968,6065,6067,6066,51124,6069,6070,6071,30648,6073,6330,5819,6076,6077,10174,1983,6080,6081,6083,6082,6084,6085,6086,6087,6088,6089,6346,5835,6092,6093,10190,1999,10192,10193,10195,10194,10196,10197,10198,10199,10200,10201,10458,9947,10204,10205,10206,10207,2016,2017,2019,2018,2020,2021,2022,2023,2024,2025,2282,1771,2028,2029,2030,2031,6144,4353,4611,4866,6144,5381,5654,6135,6152,6409,6666,6923,6145,7437,11790,3855,4112,6161,6163,6162,4372,6165,6182,6151,6168,6169,6426,5915,4380,6173,10270,2079,4129,6178,6179,6180,4645,6182,6199,6168,6185,6186,6443,5932,4397,6190,10287,2080,4159,6192,6193,6194,4915,6196,6213,6182,6199,6200,6457,5946,4411,6204,10301,2110,6144,5185,5187,5186,6212,5189,5206,5175,6280,5193,5194,5195,6172,5197,9294,1103,4176,6225,6227,6226,5460,6229,6246,6215,6232,6233,6490,5979,4444,6237,10334,2143,4208,6257,6259,6258,5748,6261,6262,6263,6264,6265,6522,6011,4476,6269,10366,2175,4192,6241,6243,6242,5988,6245,6246,6247,6248,6249,6506,5995,4460,6253,10350,2159,4224,6273,6275,6274,6276,6277,6294,6263,6280,6281,6282,6283,4492,6285,10382,2191,4240,6289,6291,6290,6548,6293,6310,6279,6296,6297,6554,6043,4508,6301,10398,2207,4256,6305,6563,6562,6820,6565,6582,6551,6312,6313,6570,6571,4524,6573,10670,2479,4272,6321,6067,6066,7092,6069,6086,6055,6328,6329,6074,6075,4540,6077,10174,1983,2240,4545,4547,4546,51396,4549,4566,4535,35016,4553,4554,4555,6348,4557,8654,463,4304,6353,6355,6354,7636,6357,6374,6343,6360,6361,6618,6107,4572,6365,10462,2271,8416,10465,10467,10466,12004,10469,10486,10455,10472,10473,10730,10219,8684,10477,10478,10479,240,2289,2291,2290,4084,2293,2054,2279,2296,2297,2554,2043,508,2301,2302,2303,6400,6401,6403,6402,6400,6405,6422,6647,6409,6409,6666,6155,6401,6413,10510,2319,6416,6417,6419,6418,6420,6421,6438,6407,6424,6425,6682,6171,6428,6429,10526,2335,6433,6434,6435,6436,6437,6438,6455,6424,6441,6442,6699,6188,6445,6446,10543,2336,6463,6448,6449,6450,6451,6452,6469,6438,6455,6456,6713,6202,6459,6460,10557,2366,6400,6465,6467,6466,6468,6469,6486,6455,6552,6473,6730,6219,6428,6477,10574,2383,6480,6481,6483,6482,6484,6485,6502,6471,6488,6489,6746,6235,6492,6493,10590,2399,6512,6513,6515,6514,6516,6517,6518,6519,6520,6521,6778,6267,6524,6525,10622,2431,6496,6497,6499,6498,6500,6501,6502,6503,6504,6505,6762,6251,6508,6509,10606,2415,4224,6529,6531,6530,6276,6533,6550,6519,6536,6537,6794,6283,4492,6541,10638,2447,6544,6545,6547,6546,6548,6549,6566,6535,6552,6553,6810,6299,6556,6557,10654,2463,6816,6817,6819,6818,6820,6821,6838,6807,6824,6825,6826,6827,6828,6829,10926,2735,6320,6321,6323,6322,6324,6325,6342,6311,6328,6329,6330,6331,6332,6333,10430,2239,2496,6593,6595,6594,51652,6597,6614,6583,39368,6601,6858,6347,6604,6605,10702,2511,6608,6609,6611,6610,6612,6613,6630,6599,6616,6617,6874,6363,6620,6621,10718,2527,10720,10721,10723,10722,10724,10725,10742,10711,10728,10729,10986,10475,10732,10733,10734,10735,2544,2545,2547,2546,2548,2549,2310,2535,2552,2553,2810,2299,2556,2557,2558,2559,6912,6913,6915,6914,6912,6917,6934,7159,6922,6921,6922,6923,6913,6925,11022,2831,6928,6929,6931,6930,6932,6933,6950,6919,6936,6937,6938,6939,6940,6941,11038,2847,6945,6946,6947,6948,6949,6950,6967,6936,6953,6954,6955,6956,6957,6958,11055,2848,6975,6960,6961,6962,6963,6964,6981,6950,6967,6968,6969,6970,6971,6972,11069,2878,6912,6977,6979,6978,6980,6981,6998,6967,7080,6985,6986,6987,6940,6989,11086,2895,6992,6993,6995,6994,6996,6997,7014,6983,7000,7001,7002,7003,7004,7005,11102,2911,7024,7025,7027,7026,7028,7029,7030,7031,7032,7033,7034,7035,7036,7037,11134,2943,7008,7009,7011,7010,7012,7013,7014,7015,7016,7017,7018,7019,7020,7021,11118,2927,7040,7041,7043,7042,7044,7045,7062,7031,7048,7049,7050,7051,7052,7053,11150,2959,7056,7057,7059,7058,7060,7061,7078,7047,7064,7065,7066,7067,7068,7069,11166,2975,7072,7073,7075,7074,7076,7077,7094,7063,7080,7081,7082,7083,7084,7085,11182,2991,7088,7089,7091,7090,7092,7093,7110,7079,7096,7097,7098,7099,7100,7101,11198,3007,3008,7105,7107,7106,52164,7109,7126,7095,43976,7113,7114,7115,7116,7117,11214,3023,7120,7121,7123,7122,7124,7125,7142,7111,7128,7129,7130,7131,7132,7133,11230,3039,11232,11233,11235,11234,11236,11237,11254,11223,11240,11241,11242,11243,11244,11245,11246,11247,3056,3057,3059,3058,3060,3061,2822,3047,3064,3065,3066,3067,3068,3069,3070,3071,6656,6657,6659,6658,6656,6661,6678,6903,6667,6665,6666,6667,6657,6669,10766,2575,6672,6673,6675,6674,6676,6677,6694,6663,6680,6681,6682,6683,6684,6685,10782,2591,6689,6690,6691,6692,6693,6694,6711,6680,6697,6698,6699,6700,6701,6702,10799,2592,6719,6704,6705,6706,6707,6708,6725,6694,6711,6712,6713,6714,6715,6716,10813,2622,6656,6721,6723,6722,6724,6725,6742,6711,6840,6729,6730,6731,6684,6733,10830,2639,6736,6737,6739,6738,6740,6741,6758,6727,6744,6745,6746,6747,6748,6749,10846,2655,6768,6769,6771,6770,6772,6773,6774,6775,6776,6777,6778,6779,6780,6781,10878,2687,6752,6753,6755,6754,6756,6757,6758,6759,6760,6761,6762,6763,6764,6765,10862,2671,6784,6785,6787,6786,6788,6789,6806,6775,6792,6793,6794,6795,6796,6797,10894,2703,6800,6801,6803,6802,6804,6805,6822,6791,6808,6809,6810,6811,6812,6813,10910,2719,6816,6817,6819,6818,6820,6821,6838,6807,6824,6825,6826,6827,6828,6829,10926,2735,6832,6833,6835,6834,6836,6837,6854,6823,6840,6841,6842,6843,6844,6845,10942,2751,2752,6849,6851,6850,51908,6853,6870,6839,47816,6857,6858,6859,6860,6861,10958,2767,6864,6865,6867,6866,6868,6869,6886,6855,6872,6873,6874,6875,6876,6877,10974,2783,10976,10977,10979,10978,10980,10981,10998,10967,10984,10985,10986,10987,10988,10989,10990,10991,2800,2801,2803,2802,2804,2805,2566,2791,2808,2809,2810,2811,2812,2813,2814,2815,7168,7169,11267,15362,7168,23557,27670,31991,7180,39945,44298,47883,7169,56333,60430,64527,3088,7185,7187,7186,7188,7189,7206,7175,52248,7193,7450,6939,7196,7197,11294,3103,3105,7202,7203,7204,11301,7206,7223,7192,52265,7210,7467,6956,7213,7214,11311,3104,3135,7216,7217,7218,15411,7220,7237,7206,52279,7224,7481,6970,7227,7228,11325,3134,7168,19521,19523,19522,7236,19525,19542,19511,7368,19529,19786,19275,7196,19533,19534,19535,3152,7249,7251,7250,23636,7253,7270,7239,52312,7257,7514,7003,7260,7261,11358,3167,3184,7281,7283,7282,27764,7285,7286,7287,52344,7289,7546,7035,7292,7293,11390,3199,3168,7265,7267,7266,31844,7269,7270,7271,52328,7273,7530,7019,7276,7277,11374,3183,4224,52353,52355,52354,6276,52357,52374,52343,7304,52361,52618,52107,4492,52365,52366,52367,3216,7313,7315,7314,40084,7317,7334,7303,52376,7321,7578,7067,7324,7325,11422,3231,3488,7585,7587,7586,44452,7589,7606,7575,52648,7593,7594,7595,7596,7597,11694,3503,2992,7089,7091,7090,48052,7093,7110,7079,52152,7097,7098,7099,7100,7101,11198,3007,3264,7361,7363,7362,52420,7365,7382,7351,52424,7369,7626,7115,7372,7373,7374,7375,3280,7377,7379,7378,56532,7381,7398,7367,52440,7385,7642,7131,7388,7389,11486,3295,3296,7393,11491,11490,60644,11493,11510,11479,52456,7401,11754,11243,7404,11501,11502,11503,3312,7409,3315,3314,64756,3317,3078,3303,52472,7417,3578,3067,7420,3325,3326,3327,7424,7425,7427,7426,7424,7429,7446,7671,7437,7433,7690,7179,7425,7437,11534,3343,7440,7441,7443,7442,7444,7445,7462,7431,7448,7449,7706,7195,7452,7453,11550,3359,7457,7458,7459,7460,7461,7462,7479,7448,7465,7466,7723,7212,7469,7470,11567,3360,7487,7472,7473,7474,7475,7476,7493,7462,7479,7480,7737,7226,7483,7484,11581,3390,7424,7489,7491,7490,7492,7493,7510,7479,7640,7497,7754,7243,7452,7501,11598,3407,7504,7505,7507,7506,7508,7509,7526,7495,7512,7513,7770,7259,7516,7517,11614,3423,7536,7537,7539,7538,7540,7541,7542,7543,7544,7545,7802,7291,7548,7549,11646,3455,7520,7521,7523,7522,7524,7525,7526,7527,7528,7529,7786,7275,7532,7533,11630,3439,4224,7553,7555,7554,6276,7557,7574,7543,7560,7561,7818,7307,4492,7565,11662,3471,7568,7569,7571,7570,7572,7573,7590,7559,7576,7577,7834,7323,7580,7581,11678,3487,7840,7841,7843,7842,7844,7845,7862,7831,7848,7849,7850,7851,7852,7853,11950,3759,7344,7345,7347,7346,7348,7349,7366,7335,7352,7353,7354,7355,7356,7357,11454,3263,3520,7617,7619,7618,52676,7621,7638,7607,56776,7625,7882,7371,7628,7629,11726,3535,7632,7633,7635,7634,7636,7637,7654,7623,7640,7641,7898,7387,7644,7645,11742,3551,11744,11745,11747,11746,11748,11749,11766,11735,11752,11753,12010,11499,11756,11757,11758,11759,3568,3569,3571,3570,3572,3573,3334,3559,3576,3577,3834,3323,3580,3581,3582,3583,11776,11777,11779,11778,11776,11781,11798,12023,11790,11785,12042,11531,11777,11789,11790,11791,11792,11793,11795,11794,11796,11797,11814,11783,11800,11801,12058,11547,11804,11805,11806,11807,11809,11810,11811,11812,11813,11814,11831,11800,11817,11818,12075,11564,11821,11822,11823,11808,11839,11824,11825,11826,11827,11828,11845,11814,11831,11832,12089,11578,11835,11836,11837,11838,11776,11841,11843,11842,11844,11845,11862,11831,12008,11849,12106,11595,11804,11853,11854,11855,11856,11857,11859,11858,11860,11861,11878,11847,11864,11865,12122,11611,11868,11869,11870,11871,11888,11889,11891,11890,11892,11893,11894,11895,11896,11897,12154,11643,11900,11901,11902,11903,11872,11873,11875,11874,11876,11877,11878,11879,11880,11881,12138,11627,11884,11885,11886,11887,8320,11905,11907,11906,10372,11909,11926,11895,11912,11913,12170,11659,8588,11917,11918,11919,11920,11921,11923,11922,11924,11925,11942,11911,11928,11929,12186,11675,11932,11933,11934,11935,12192,12193,12195,12194,12196,12197,12214,12183,12200,12201,12202,12203,12204,12205,12206,12207,11696,11697,11699,11698,11700,11701,11718,11687,11704,11705,11706,11707,11708,11709,11710,11711,11968,11969,11971,11970,11972,11973,11990,11959,11976,11977,12234,11723,11980,11981,11982,11983,11984,11985,11987,11986,11988,11989,12006,11975,11992,11993,12250,11739,11996,11997,11998,11999,12000,12001,12003,12002,12004,12005,12022,11991,12008,12009,12266,11755,12012,12013,12014,12015,12016,12017,12019,12018,12020,12021,11782,12007,12024,12025,12282,11771,12028,12029,12030,12031,3840,3841,3843,3842,3840,3845,3862,4087,3855,3849,10,3595,3841,3853,3854,3855,3856,3857,3859,3858,3860,3861,3878,3847,3864,3865,26,3611,3868,3869,3870,3871,3873,3874,3875,3876,3877,3878,3895,3864,3881,3882,43,3628,3885,3886,3887,3872,3903,3888,3889,3890,3891,3892,3909,3878,3895,3896,57,3642,3899,3900,3901,3902,3840,3905,3907,3906,3908,3909,3926,3895,4088,3913,74,3659,3868,3917,3918,3919,3920,3921,3923,3922,3924,3925,3942,3911,3928,3929,90,3675,3932,3933,3934,3935,3952,3953,3955,3954,3956,3957,3958,3959,3960,3961,122,3707,3964,3965,3966,3967,3936,3937,3939,3938,3940,3941,3942,3943,3944,3945,106,3691,3948,3949,3950,3951,128,3969,3971,3970,2180,3973,3990,3959,3976,3977,138,3723,396,3981,3982,3983,3984,3985,3987,3986,3988,3989,4006,3975,3992,3993,154,3739,3996,3997,3998,3999,160,161,163,162,164,165,182,151,168,169,170,171,172,173,174,175,3760,3761,3763,3762,3764,3765,3782,3751,3768,3769,3770,3771,3772,3773,3774,3775,4032,4033,4035,4034,4036,4037,4054,4023,4040,4041,202,3787,4044,4045,4046,4047,4048,4049,4051,4050,4052,4053,4070,4039,4056,4057,218,3803,4060,4061,4062,4063,4064,4065,4067,4066,4068,4069,4086,4055,4072,4073,234,3819,4076,4077,4078,4079,4080,4081,4083,4082,4084,4085,3846,4071,4088,4089,250,3835,4092,4093,4094,4095,8193,8194,8195,8196,8197,8198,8215,8440,8201,8202,8459,12044,8205,8206,12303,4096,8209,8210,8211,8212,8213,8214,8231,8200,8217,8218,8475,12060,8221,8222,12319,4112,8225,8226,8227,8228,8229,8230,8247,8216,8233,8234,8491,12076,8237,8238,12335,4128,8241,8242,8243,8244,8245,8246,8263,8232,8249,8250,8507,12092,8253,8254,12351,4144,8193,8258,8259,8260,8261,8262,8279,8248,8201,8266,8523,12108,8237,8270,12367,4160,8273,8274,8275,8276,8277,8278,8295,8264,8281,8282,8539,12124,8285,8286,12383,4176,8305,8306,8307,8308,8309,8310,8311,8312,8313,8314,8571,12156,8317,8318,12415,4208,8289,8290,8291,8292,8293,8294,8295,8296,8297,8298,8555,12140,8301,8302,12399,4192,8321,8322,8323,8324,10373,8326,8343,8312,8329,8330,8587,12172,8845,8334,12431,4224,8337,8338,8339,8340,8341,8342,8359,8328,8345,8346,8603,12188,8349,8350,12447,4240,8609,8610,8611,8612,8613,8614,8631,8600,8617,8618,8619,8620,8621,8622,12719,4512,12209,12210,12211,12212,12213,12214,12231,12200,12217,12218,12219,12220,12221,12222,16319,8112,193,8386,8387,8388,49349,8390,8407,8376,201,8394,8651,12236,8397,8398,12495,4288,8401,8402,8403,8404,8405,8406,8423,8392,8409,8410,8667,12252,8413,8414,12511,4304,12513,12514,12515,12516,12517,12518,12535,12504,12521,12522,12779,16364,12525,12526,12527,12512,4337,4338,4339,4340,4341,4342,4103,4328,4345,4346,4603,8188,4349,4350,4351,4336,8449,8450,8451,8452,8453,8454,8471,8696,8457,8458,8715,8204,8461,8462,12559,4352,8465,8466,8467,8468,8469,8470,8487,8456,8473,8474,8731,8220,8477,8478,12575,4368,8481,8482,8483,8484,8485,8486,8503,8472,8489,8490,8747,8236,8493,8494,12591,4384,8497,8498,8499,8500,8501,8502,8519,8488,8505,8506,8763,8252,8509,8510,12607,4400,8449,8514,8515,8516,8517,8518,8535,8504,8473,8522,8779,8268,8493,8526,12623,4416,8529,8530,8531,8532,8533,8534,8551,8520,8537,8538,8795,8284,8541,8542,12639,4432,8561,8562,8563,8564,8565,8566,8567,8568,8569,8570,8827,8316,8573,8574,12671,4464,8545,8546,8547,8548,8549,8550,8551,8552,8553,8554,8811,8300,8557,8558,12655,4448,8321,8578,8579,8580,10373,8582,8599,8568,8585,8586,8843,8332,8845,8590,12687,4480,8593,8594,8595,8596,8597,8598,8615,8584,8601,8602,8859,8348,8605,8606,12703,4496,8865,8866,8867,8868,8869,8870,8887,8856,8873,8874,8875,8876,8877,8878,12975,4768,8369,8370,8371,8372,8373,8374,8391,8360,8377,8378,8379,8380,8381,8382,12479,4272,449,8642,8643,8644,49605,8646,8663,8632,4553,8650,8907,8396,8653,8654,12751,4544,8657,8658,8659,8660,8661,8662,8679,8648,8665,8666,8923,8412,8669,8670,12767,4560,12769,12770,12771,12772,12773,12774,12791,12760,12777,12778,13035,12524,12781,12782,12783,12768,4593,4594,4595,4596,4597,4598,4359,4584,4601,4602,4859,4348,4605,4606,4607,4592,8705,8706,8707,8708,8709,8710,8727,8952,8713,8714,8971,8460,8717,8718,12815,4608,8721,8722,8723,8724,8725,8726,8743,8712,8729,8730,8987,8476,8733,8734,12831,4624,8737,8738,8739,8740,8741,8742,8759,8728,8745,8746,9003,8492,8749,8750,12847,4640,8753,8754,8755,8756,8757,8758,8775,8744,8761,8762,9019,8508,8765,8766,12863,4656,8705,8770,8771,8772,8773,8774,8791,8760,8745,8778,9035,8524,8749,8782,12879,4672,8785,8786,8787,8788,8789,8790,8807,8776,8793,8794,9051,8540,8797,8798,12895,4688,8817,8818,8819,8820,8821,8822,8823,8824,8825,8826,9083,8572,8829,8830,12927,4720,8801,8802,8803,8804,8805,8806,8807,8808,8809,8810,9067,8556,8813,8814,12911,4704,8321,8834,8835,8836,10373,8838,8855,8824,8841,8842,9099,8588,8845,8846,12943,4736,8849,8850,8851,8852,8853,8854,8871,8840,8857,8858,9115,8604,8861,8862,12959,4752,9121,9122,9123,9124,9125,9126,9143,9112,9129,9130,9131,9132,9133,9134,13231,5024,8625,8626,8627,8628,8629,8630,8647,8616,8633,8634,8635,8636,8637,8638,12735,4528,705,8898,8899,8900,49861,8902,8919,8888,8905,8906,9163,8652,8909,8910,13007,4800,8913,8914,8915,8916,8917,8918,8935,8904,8921,8922,9179,8668,8925,8926,13023,4816,13025,13026,13027,13028,13029,13030,13047,13016,13033,13034,13291,12780,13037,13038,13039,13024,4849,4850,4851,4852,4853,4854,4615,4840,4857,4858,5115,4604,4861,4862,4863,4848,8961,8962,8963,8964,8965,8966,8983,9208,8969,8970,9227,8716,8973,8974,13071,4864,8977,8978,8979,8980,8981,8982,8999,8968,8985,8986,9243,8732,8989,8990,13087,4880,8993,8994,8995,8996,8997,8998,9015,8984,9001,9002,9259,8748,9005,9006,13103,4896,9009,9010,9011,9012,9013,9014,9031,9000,9017,9018,9275,8764,9021,9022,13119,4912,8961,9026,9027,9028,9029,9030,9047,9016,9017,9034,9291,8780,9005,9038,13135,4928,9041,9042,9043,9044,9045,9046,9063,9032,9049,9050,9307,8796,9053,9054,13151,4944,9073,9074,9075,9076,9077,9078,9079,9080,9081,9082,9339,8828,9085,9086,13183,4976,9057,9058,9059,9060,9061,9062,9063,9064,9065,9066,9323,8812,9069,9070,13167,4960,8321,9090,9091,9092,10373,9094,9111,9080,9097,9098,9355,8844,8845,9102,13199,4992,9105,9106,9107,9108,9109,9110,9127,9096,9113,9114,9371,8860,9117,9118,13215,5008,9377,9378,9379,9380,9381,9382,9399,9368,9385,9386,9387,9388,9389,9390,13487,5280,8881,8882,8883,8884,8885,8886,8903,8872,8889,8890,8891,8892,8893,8894,12991,4784,961,9154,9155,9156,50117,9158,9175,9144,13257,9162,9419,8908,9165,9166,13263,5056,9169,9170,9171,9172,9173,9174,9191,9160,9177,9178,9435,8924,9181,9182,13279,5072,13281,13282,13283,13284,13285,13286,13303,13272,13289,13290,13547,13036,13293,13294,13295,13280,5105,5106,5107,5108,5109,5110,4871,5096,5113,5114,5371,4860,5117,5118,5119,5104,9217,9234,9251,9268,9221,9302,9319,9336,9225,9370,9643,9148,9229,9438,13551,5360,9217,9234,9235,9236,9237,9238,9255,9224,9289,9242,9499,8988,9261,9246,13343,5136,9217,9250,9251,9252,9253,9254,9271,9240,9289,9258,9515,9004,9261,9262,13359,5152,9217,9266,9267,9268,9269,9270,9287,9256,9289,9274,9531,9020,9261,9278,13375,5168,9217,9282,9283,9284,9285,9286,9287,9288,9289,9290,9547,9036,9261,9294,13391,5184,9217,9298,9299,9300,9301,9302,9319,9288,9289,9306,9563,9052,9261,9310,13407,5200,9217,9314,9331,9332,9317,9334,9335,9336,9289,9322,9595,9084,9261,9342,13439,5232,9217,9330,9315,9316,9333,9318,9319,9320,9289,9338,9579,9068,9261,9326,13423,5216,8321,9282,9283,9284,10373,9286,9287,9288,9353,9290,9547,9036,8845,9294,13391,5184,9217,9362,9363,9364,9365,9366,9383,9352,9289,9370,9627,9116,9261,9374,13471,5264,9473,9634,9635,9636,9637,9638,9655,9624,9545,9642,9643,9644,9517,9646,13743,5536,8961,9138,9139,9140,9141,9142,9159,9128,9033,9146,9147,9148,9005,9150,13247,5040,1217,9250,9251,9252,50373,9254,9255,9256,17609,9258,9515,9004,9421,9262,13359,5152,9217,9426,9427,9428,9429,9430,9447,9416,9289,9434,9691,9180,9261,9438,13535,5328,13313,13538,13539,13540,13541,13542,13559,13528,13385,13546,13803,13292,13357,13550,13551,13536,5121,5362,5363,5364,5365,5366,5127,5352,5193,5370,5627,5116,5165,5374,5375,5360,9473,9474,9475,9476,9477,9478,9495,9720,9481,9482,9739,9228,9485,9486,13583,5376,9489,9490,9491,9492,9493,9494,9511,9480,9497,9498,9755,9244,9501,9502,13599,5392,9505,9506,9507,9508,9509,9510,9527,9496,9513,9514,9771,9260,9517,9518,13615,5408,9521,9522,9523,9524,9525,9526,9543,9512,9529,9530,9787,9276,9533,9534,13631,5424,9473,9538,9539,9540,9541,9542,9559,9528,9561,9546,9803,9292,9517,9550,13647,5440,9553,9554,9555,9556,9557,9558,9575,9544,9561,9562,9819,9308,9565,9566,13663,5456,9585,9586,9587,9588,9589,9590,9591,9592,9593,9594,9851,9340,9597,9598,13695,5488,9569,9570,9571,9572,9573,9574,9575,9576,9577,9578,9835,9324,9581,9582,13679,5472,8321,9602,9603,9604,10373,9606,9623,9592,9609,9610,9867,9356,8845,9614,13711,5504,9617,9618,9619,9620,9621,9622,9639,9608,9625,9626,9883,9372,9629,9630,13727,5520,9889,9890,9891,9892,9893,9894,9911,9880,9897,9898,9899,9900,9901,9902,13999,5792,9393,9394,9395,9396,9397,9398,9415,9384,9401,9402,9403,9404,9405,9406,13503,5296,1473,9666,9667,9668,50629,9670,9687,9656,21961,9674,9931,9420,9677,9678,13775,5568,9681,9682,9683,9684,9685,9686,9703,9672,9689,9690,9947,9436,9693,9694,13791,5584,13793,13794,13795,13796,13797,13798,13815,13784,13801,13802,14059,13548,13805,13806,13807,13792,5617,5618,5619,5620,5621,5622,5383,5608,5625,5626,5883,5372,5629,5630,5631,5616,9745,9746,9747,9748,9749,9750,9751,9752,9753,9754,10011,9500,9757,9758,13855,5648,9761,9762,9763,9764,9765,9766,9767,9768,9769,9770,10027,9516,9773,9774,13871,5664,9777,9778,9779,9780,9781,9782,9783,9784,9785,9786,10043,9532,9789,9790,13887,5680,9793,9794,9795,9796,9797,9798,9799,9800,9801,9802,10059,9548,9805,9806,13903,5696,9809,9810,9811,9812,9813,9814,9815,9816,9817,9818,10075,9564,9821,9822,13919,5712,9825,9826,9827,9828,9829,9830,9831,9832,9833,9834,10091,9580,9837,9838,13935,5728,9841,9842,9843,9844,9845,9846,9847,9848,9849,9850,10107,9596,9853,9854,13951,5744,9857,9858,9859,9860,9861,9862,9863,9864,9865,9866,10123,9612,9869,9870,13967,5760,8337,9874,9875,9876,10389,9878,9879,9880,9881,9882,10139,9628,8861,9886,13983,5776,9889,9890,9891,9892,9893,9894,9895,9896,9897,9898,10155,9644,9901,9902,13999,5792,10161,10162,10163,10164,10165,10166,10167,10168,10169,10170,10171,10172,10173,10174,14271,6064,9665,9666,9667,9668,9669,9670,9671,9672,9673,9674,9675,9676,9677,9678,13775,5568,1745,9938,9939,9940,50901,9942,9943,9944,26329,9946,10203,9692,9949,9950,14047,5840,9953,9954,9955,9956,9957,9958,9959,9960,9961,9962,10219,9708,9965,9966,14063,5856,14065,14066,14067,14068,14069,14070,14071,14072,14073,14074,14331,13820,14077,14078,14079,14064,5633,5634,5635,5636,5637,5638,5639,5640,5641,5642,5899,5388,5645,5646,5647,5632,10225,10226,10227,10228,10229,10230,10231,10232,10233,10234,10491,9980,10237,10238,14335,6128,9985,9986,9987,9988,9989,9990,9991,9992,9993,9994,10251,9740,9997,9998,14095,5888,10001,10002,10003,10004,10005,10006,10007,10008,10009,10010,10267,9756,10013,10014,14111,5904,10017,10018,10019,10020,10021,10022,10023,10024,10025,10026,10283,9772,10029,10030,14127,5920,10033,10034,10035,10036,10037,10038,10039,10040,10041,10042,10299,9788,10045,10046,14143,5936,10049,10050,10051,10052,10053,10054,10055,10056,10057,10058,10315,9804,10061,10062,14159,5952,10065,10066,10067,10068,10069,10070,10071,10072,10073,10074,10331,9820,10077,10078,14175,5968,10081,10082,10083,10084,10085,10086,10087,10088,10089,10090,10347,9836,10093,10094,14191,5984,8305,10098,10099,10100,10357,10102,10103,10104,10105,10106,10363,9852,8829,10110,14207,6000,10113,10114,10115,10116,10117,10118,10119,10120,10121,10122,10379,9868,10125,10126,14223,6016,10385,10386,10387,10388,10389,10390,10391,10392,10393,10394,10395,10396,10397,10398,14495,6288,9889,9890,9891,9892,9893,9894,9895,9896,9897,9898,9899,9900,9901,9902,13999,5792,1969,10162,10163,10164,51125,10166,10167,10168,30649,10170,10427,9916,10173,10174,14271,6064,10177,10178,10179,10180,10181,10182,10183,10184,10185,10186,10443,9932,10189,10190,14287,6080,14289,14290,14291,14292,14293,14294,14295,14296,14297,14298,14555,14044,14301,14302,14303,14288,6113,6114,6115,6116,6117,6118,6119,6120,6121,6122,6379,5868,6125,6126,6127,6112,10241,8450,8707,8964,10245,9478,9751,10232,10249,10506,10763,11020,10253,11534,15887,7936,8209,10258,10259,10260,8469,10262,10279,10248,10265,10266,10523,10012,8733,10270,14367,6160,8225,10274,10275,10276,8741,10278,10295,10264,10281,10282,10539,10028,8749,10286,14383,6176,8241,10290,10291,10292,9013,10294,10311,10280,10297,10298,10555,10044,8765,10302,14399,6192,10241,9282,9283,9284,10309,9286,9303,9272,10377,9290,9291,9292,10285,9294,13391,5184,8273,10322,10323,10324,9557,10326,10343,10312,10329,10330,10587,10076,8797,10334,14431,6224,8305,10354,10355,10356,9845,10358,10359,10360,10361,10362,10619,10108,8829,10366,14463,6256,8289,10338,10339,10340,10085,10342,10343,10344,10345,10346,10603,10092,8813,10350,14447,6240,8321,10370,10371,10372,10373,10374,10391,10360,10377,10378,10379,10380,8845,10382,14479,6272,8337,10386,10387,10388,10645,10390,10407,10376,10393,10394,10651,10140,8861,10398,14495,6288,8353,10402,10659,10660,10917,10662,10679,10648,10409,10410,10667,10668,8877,10670,14767,6560,8369,10418,10163,10164,11189,10166,10183,10152,10425,10426,10171,10172,8893,10174,14271,6064,2241,8898,8899,8900,51397,8902,8919,8888,35017,8906,8907,8908,10445,8910,13007,4800,8401,10450,10451,10452,11733,10454,10471,10440,10457,10458,10715,10204,8925,10462,14559,6352,12513,14562,14563,14564,16101,14566,14583,14552,14569,14570,14827,14316,13037,14574,14575,14560,4337,6386,6387,6388,8181,6390,6151,6376,6393,6394,6651,6140,4861,6398,6399,6384,10497,10498,10499,10500,10501,10502,10519,10744,10505,10506,10763,10252,10509,10510,14607,6400,10513,10514,10515,10516,10517,10518,10535,10504,10521,10522,10779,10268,10525,10526,14623,6416,10529,10530,10531,10532,10533,10534,10551,10520,10537,10538,10795,10284,10541,10542,14639,6432,10545,10546,10547,10548,10549,10550,10567,10536,10553,10554,10811,10300,10557,10558,14655,6448,10497,10562,10563,10564,10565,10566,10583,10552,10649,10570,10827,10316,10541,10574,14671,6464,10577,10578,10579,10580,10581,10582,10599,10568,10585,10586,10843,10332,10589,10590,14687,6480,10609,10610,10611,10612,10613,10614,10615,10616,10617,10618,10875,10364,10621,10622,14719,6512,10593,10594,10595,10596,10597,10598,10599,10600,10601,10602,10859,10348,10605,10606,14703,6496,8321,10626,10627,10628,10373,10630,10647,10616,10633,10634,10891,10380,8845,10638,14735,6528,10641,10642,10643,10644,10645,10646,10663,10632,10649,10650,10907,10396,10653,10654,14751,6544,10913,10914,10915,10916,10917,10918,10935,10904,10921,10922,10923,10924,10925,10926,15023,6816,10417,10418,10419,10420,10421,10422,10439,10408,10425,10426,10427,10428,10429,10430,14527,6320,2497,10690,10691,10692,51653,10694,10711,10680,39369,10698,10955,10444,10701,10702,14799,6592,10705,10706,10707,10708,10709,10710,10727,10696,10713,10714,10971,10460,10717,10718,14815,6608,14817,14818,14819,14820,14821,14822,14839,14808,14825,14826,15083,14572,14829,14830,14831,14816,6641,6642,6643,6644,6645,6646,6407,6632,6649,6650,6907,6396,6653,6654,6655,6640,11009,11010,11011,11012,11013,11014,11031,11256,11017,11018,11019,11020,11021,11022,15119,6912,11025,11026,11027,11028,11029,11030,11047,11016,11033,11034,11035,11036,11037,11038,15135,6928,11041,11042,11043,11044,11045,11046,11063,11032,11049,11050,11051,11052,11053,11054,15151,6944,11057,11058,11059,11060,11061,11062,11079,11048,11065,11066,11067,11068,11069,11070,15167,6960,11009,11074,11075,11076,11077,11078,11095,11064,11177,11082,11083,11084,11053,11086,15183,6976,11089,11090,11091,11092,11093,11094,11111,11080,11097,11098,11099,11100,11101,11102,15199,6992,11121,11122,11123,11124,11125,11126,11127,11128,11129,11130,11131,11132,11133,11134,15231,7024,11105,11106,11107,11108,11109,11110,11111,11112,11113,11114,11115,11116,11117,11118,15215,7008,11137,11138,11139,11140,11141,11142,11159,11128,11145,11146,11147,11148,11149,11150,15247,7040,11153,11154,11155,11156,11157,11158,11175,11144,11161,11162,11163,11164,11165,11166,15263,7056,11169,11170,11171,11172,11173,11174,11191,11160,11177,11178,11179,11180,11181,11182,15279,7072,11185,11186,11187,11188,11189,11190,11207,11176,11193,11194,11195,11196,11197,11198,15295,7088,3009,11202,11203,11204,52165,11206,11223,11192,43977,11210,11211,11212,11213,11214,15311,7104,11217,11218,11219,11220,11221,11222,11239,11208,11225,11226,11227,11228,11229,11230,15327,7120,15329,15330,15331,15332,15333,15334,15351,15320,15337,15338,15339,15340,15341,15342,15343,15328,7153,7154,7155,7156,7157,7158,6919,7144,7161,7162,7163,7164,7165,7166,7167,7152,10753,10754,10755,10756,10757,10758,10775,11000,10761,10762,10763,10764,10765,10766,14863,6656,10769,10770,10771,10772,10773,10774,10791,10760,10777,10778,10779,10780,10781,10782,14879,6672,10785,10786,10787,10788,10789,10790,10807,10776,10793,10794,10795,10796,10797,10798,14895,6688,10801,10802,10803,10804,10805,10806,10823,10792,10809,10810,10811,10812,10813,10814,14911,6704,10753,10818,10819,10820,10821,10822,10839,10808,10937,10826,10827,10828,10797,10830,14927,6720,10833,10834,10835,10836,10837,10838,10855,10824,10841,10842,10843,10844,10845,10846,14943,6736,10865,10866,10867,10868,10869,10870,10871,10872,10873,10874,10875,10876,10877,10878,14975,6768,10849,10850,10851,10852,10853,10854,10855,10856,10857,10858,10859,10860,10861,10862,14959,6752,10881,10882,10883,10884,10885,10886,10903,10872,10889,10890,10891,10892,10893,10894,14991,6784,10897,10898,10899,10900,10901,10902,10919,10888,10905,10906,10907,10908,10909,10910,15007,6800,10913,10914,10915,10916,10917,10918,10935,10904,10921,10922,10923,10924,10925,10926,15023,6816,10929,10930,10931,10932,10933,10934,10951,10920,10937,10938,10939,10940,10941,10942,15039,6832,2753,10946,10947,10948,51909,10950,10967,10936,47817,10954,10955,10956,10957,10958,15055,6848,10961,10962,10963,10964,10965,10966,10983,10952,10969,10970,10971,10972,10973,10974,15071,6864,15073,15074,15075,15076,15077,15078,15095,15064,15081,15082,15083,15084,15085,15086,15087,15072,6897,6898,6899,6900,6901,6902,6663,6888,6905,6906,6907,6908,6909,6910,6911,6896,11265,7170,11267,15364,11269,23558,27671,31992,11273,39946,44299,47884,11277,56334,60431,64512,3089,11282,11283,11284,7189,11286,11303,11272,52249,11290,11547,11036,11293,11294,15391,7184,3105,11298,11299,11300,11301,11302,11319,11288,52265,11306,11563,11052,11309,11310,15407,7200,3121,11314,11315,11316,15413,11318,11335,11304,52281,11322,11579,11068,11325,11326,15423,7216,11265,19522,19523,19524,11333,19526,19543,19512,11465,19530,19787,19276,11309,19534,19535,19520,3153,11346,11347,11348,23637,11350,11367,11336,52313,11354,11611,11100,11357,11358,15455,7248,3185,11378,11379,11380,27765,11382,11383,11384,52345,11386,11643,11132,11389,11390,15487,7280,3169,11362,11363,11364,31845,11366,11367,11368,52329,11370,11627,11116,11373,11374,15471,7264,8321,52354,52355,52356,10373,52358,52375,52344,11401,52362,52619,52108,8845,52366,52367,52352,3217,11410,11411,11412,40085,11414,11431,11400,52377,11418,11675,11164,11421,11422,15519,7312,3489,11682,11683,11684,44453,11686,11703,11672,52649,11690,11691,11692,11693,11694,15791,7584,2993,11186,11187,11188,48053,11190,11207,11176,52153,11194,11195,11196,11197,11198,15295,7088,3265,11458,11459,11460,52421,11462,11479,11448,52425,11466,11723,11212,11469,11470,11471,11456,3281,11474,11475,11476,56533,11478,11495,11464,52441,11482,11739,11228,11485,11486,15583,7376,3297,11490,15587,15588,60645,15590,15607,15576,52457,11498,15851,15340,11501,15598,15599,15584,3313,11506,7411,7412,64757,7414,7175,7400,52473,11514,7675,7164,11517,7422,7423,7408,11521,11522,11523,11524,11525,11526,11543,11768,11529,11530,11787,11276,11533,11534,15631,7424,11537,11538,11539,11540,11541,11542,11559,11528,11545,11546,11803,11292,11549,11550,15647,7440,11553,11554,11555,11556,11557,11558,11575,11544,11561,11562,11819,11308,11565,11566,15663,7456,11569,11570,11571,11572,11573,11574,11591,11560,11577,11578,11835,11324,11581,11582,15679,7472,11521,11586,11587,11588,11589,11590,11607,11576,11737,11594,11851,11340,11565,11598,15695,7488,11601,11602,11603,11604,11605,11606,11623,11592,11609,11610,11867,11356,11613,11614,15711,7504,11633,11634,11635,11636,11637,11638,11639,11640,11641,11642,11899,11388,11645,11646,15743,7536,11617,11618,11619,11620,11621,11622,11623,11624,11625,11626,11883,11372,11629,11630,15727,7520,8321,11650,11651,11652,10373,11654,11671,11640,11657,11658,11915,11404,8845,11662,15759,7552,11665,11666,11667,11668,11669,11670,11687,11656,11673,11674,11931,11420,11677,11678,15775,7568,11937,11938,11939,11940,11941,11942,11959,11928,11945,11946,11947,11948,11949,11950,16047,7840,11441,11442,11443,11444,11445,11446,11463,11432,11449,11450,11451,11452,11453,11454,15551,7344,3521,11714,11715,11716,52677,11718,11735,11704,56777,11722,11979,11468,11725,11726,15823,7616,11729,11730,11731,11732,11733,11734,11751,11720,11737,11738,11995,11484,11741,11742,15839,7632,15841,15842,15843,15844,15845,15846,15863,15832,15849,15850,16107,15596,15853,15854,15855,15840,7665,7666,7667,7668,7669,7670,7431,7656,7673,7674,7931,7420,7677,7678,7679,7664,15873,15874,15875,15876,15877,15878,15895,16120,15881,15882,16139,15628,15885,15886,15887,15872,15889,15890,15891,15892,15893,15894,15911,15880,15897,15898,16155,15644,15901,15902,15903,15888,15905,15906,15907,15908,15909,15910,15927,15896,15913,15914,16171,15660,15917,15918,15919,15904,15921,15922,15923,15924,15925,15926,15943,15912,15929,15930,16187,15676,15933,15934,15935,15920,15873,15938,15939,15940,15941,15942,15959,15928,16105,15946,16203,15692,15917,15950,15951,15936,15953,15954,15955,15956,15957,15958,15975,15944,15961,15962,16219,15708,15965,15966,15967,15952,15985,15986,15987,15988,15989,15990,15991,15992,15993,15994,16251,15740,15997,15998,15999,15984,15969,15970,15971,15972,15973,15974,15975,15976,15977,15978,16235,15724,15981,15982,15983,15968,12417,16002,16003,16004,14469,16006,16023,15992,16009,16010,16267,15756,12941,16014,16015,16000,16017,16018,16019,16020,16021,16022,16039,16008,16025,16026,16283,15772,16029,16030,16031,16016,16289,16290,16291,16292,16293,16294,16311,16280,16297,16298,16299,16300,16301,16302,16303,16288,15793,15794,15795,15796,15797,15798,15815,15784,15801,15802,15803,15804,15805,15806,15807,15792,16065,16066,16067,16068,16069,16070,16087,16056,16073,16074,16331,15820,16077,16078,16079,16064,16081,16082,16083,16084,16085,16086,16103,16072,16089,16090,16347,15836,16093,16094,16095,16080,16097,16098,16099,16100,16101,16102,16119,16088,16105,16106,16363,15852,16109,16110,16111,16096,16113,16114,16115,16116,16117,16118,15879,16104,16121,16122,16379,15868,16125,16126,16127,16112,7937,7938,7939,7940,7941,7942,7959,8184,7945,7946,4107,7692,7949,7950,7951,7936,7953,7954,7955,7956,7957,7958,7975,7944,7961,7962,4123,7708,7965,7966,7967,7952,7969,7970,7971,7972,7973,7974,7991,7960,7977,7978,4139,7724,7981,7982,7983,7968,7985,7986,7987,7988,7989,7990,8007,7976,7993,7994,4155,7740,7997,7998,7999,7984,7937,8002,8003,8004,8005,8006,8023,7992,8185,8010,4171,7756,7981,8014,8015,8000,8017,8018,8019,8020,8021,8022,8039,8008,8025,8026,4187,7772,8029,8030,8031,8016,8049,8050,8051,8052,8053,8054,8055,8056,8057,8058,4219,7804,8061,8062,8063,8048,8033,8034,8035,8036,8037,8038,8039,8040,8041,8042,4203,7788,8045,8046,8047,8032,4225,8066,8067,8068,6277,8070,8087,8056,8073,8074,4235,7820,4749,8078,8079,8064,8081,8082,8083,8084,8085,8086,8103,8072,8089,8090,4251,7836,8093,8094,8095,8080,4257,4258,4259,4260,4261,4262,4279,4248,4265,4266,4267,4268,4269,4270,4271,4256,7857,7858,7859,7860,7861,7862,7879,7848,7865,7866,7867,7868,7869,7870,7871,7856,8129,8130,8131,8132,8133,8134,8151,8120,8137,8138,4299,7884,8141,8142,8143,8128,8145,8146,8147,8148,8149,8150,8167,8136,8153,8154,4315,7900,8157,8158,8159,8144,8161,8162,8163,8164,8165,8166,8183,8152,8169,8170,4331,7916,8173,8174,8175,8160,8177,8178,8179,8180,8181,8182,7943,8168,8185,8186,4347,7932,8189,8190,8191,8176,12303,12288,12289,12290,12291,12292,12309,12534,12295,12296,12553,16138,12299,12300,16397,8206,12319,12304,12305,12306,12307,12308,12325,12294,12311,12312,12569,16154,12315,12316,16413,8222,12335,12320,12321,12322,12323,12324,12341,12310,12327,12328,12585,16170,12331,12332,16429,8238,12351,12336,12337,12338,12339,12340,12357,12326,12343,12344,12601,16186,12347,12348,16445,8254,12303,12352,12353,12354,12355,12356,12373,12342,12295,12360,12617,16202,12347,12364,16461,8270,12383,12368,12369,12370,12371,12372,12389,12358,12375,12376,12633,16218,12379,12380,16477,8286,12415,12400,12401,12402,12403,12404,12405,12406,12407,12408,12665,16250,12411,12412,16509,8318,12399,12384,12385,12386,12387,12388,12389,12390,12391,12392,12649,16234,12395,12396,16493,8302,12431,12416,12417,12418,14467,12420,12437,12406,12423,12424,12681,16266,13195,12428,16525,8334,12447,12432,12433,12434,12435,12436,12453,12422,12439,12440,12697,16282,12443,12444,16541,8350,12719,12704,12705,12706,12707,12708,12725,12694,12711,12712,12713,12714,12715,12716,16813,8622,16319,16304,16305,16306,16307,16308,16325,16294,16311,16312,16313,16314,16315,16316,20413,12222,207,12480,12481,12482,49347,12484,12501,12470,199,12488,12745,16330,12491,12492,16589,8398,12511,12496,12497,12498,12499,12500,12517,12486,12503,12504,12761,16346,12507,12508,16605,8414,16623,16608,16609,16610,16611,16612,16629,16598,16615,16616,16873,20458,16619,16620,16621,16622,8447,8432,8433,8434,8435,8436,8197,8422,8439,8440,8697,12282,8443,8444,8445,8446,12559,12544,12545,12546,12547,12548,12565,12790,12551,12552,12809,12298,12555,12556,16653,8462,12575,12560,12561,12562,12563,12564,12581,12550,12567,12568,12825,12314,12571,12572,16669,8478,12591,12576,12577,12578,12579,12580,12597,12566,12583,12584,12841,12330,12587,12588,16685,8494,12607,12592,12593,12594,12595,12596,12613,12582,12599,12600,12857,12346,12603,12604,16701,8510,12559,12608,12609,12610,12611,12612,12629,12598,12567,12616,12873,12362,12603,12620,16717,8526,12639,12624,12625,12626,12627,12628,12645,12614,12631,12632,12889,12378,12635,12636,16733,8542,12671,12656,12657,12658,12659,12660,12661,12662,12663,12664,12921,12410,12667,12668,16765,8574,12655,12640,12641,12642,12643,12644,12645,12646,12647,12648,12905,12394,12651,12652,16749,8558,12431,12672,12673,12674,14467,12676,12693,12662,12679,12680,12937,12426,13195,12684,16781,8590,12703,12688,12689,12690,12691,12692,12709,12678,12695,12696,12953,12442,12699,12700,16797,8606,12975,12960,12961,12962,12963,12964,12981,12950,12967,12968,12969,12970,12971,12972,17069,8878,12479,12464,12465,12466,12467,12468,12485,12454,12471,12472,12473,12474,12475,12476,16573,8382,463,12736,12737,12738,49603,12740,12757,12726,4551,12744,13001,12490,12747,12748,16845,8654,12767,12752,12753,12754,12755,12756,12773,12742,12759,12760,13017,12506,12763,12764,16861,8670,16879,16864,16865,16866,16867,16868,16885,16854,16871,16872,17129,16618,16875,16876,16877,16878,8703,8688,8689,8690,8691,8692,8453,8678,8695,8696,8953,8442,8699,8700,8701,8702,12815,12800,12801,12802,12803,12804,12821,13046,12807,12808,13065,12554,12811,12812,16909,8718,12831,12816,12817,12818,12819,12820,12837,12806,12823,12824,13081,12570,12827,12828,16925,8734,12847,12832,12833,12834,12835,12836,12853,12822,12839,12840,13097,12586,12843,12844,16941,8750,12863,12848,12849,12850,12851,12852,12869,12838,12855,12856,13113,12602,12859,12860,16957,8766,12815,12864,12865,12866,12867,12868,12885,12854,12839,12872,13129,12618,12859,12876,16973,8782,12895,12880,12881,12882,12883,12884,12901,12870,12887,12888,13145,12634,12891,12892,16989,8798,12927,12912,12913,12914,12915,12916,12917,12918,12919,12920,13177,12666,12923,12924,17021,8830,12911,12896,12897,12898,12899,12900,12901,12902,12903,12904,13161,12650,12907,12908,17005,8814,12431,12928,12929,12930,14467,12932,12949,12918,12935,12936,13193,12682,13195,12940,17037,8846,12959,12944,12945,12946,12947,12948,12965,12934,12951,12952,13209,12698,12955,12956,17053,8862,13231,13216,13217,13218,13219,13220,13237,13206,13223,13224,13225,13226,13227,13228,17325,9134,12735,12720,12721,12722,12723,12724,12741,12710,12727,12728,12729,12730,12731,12732,16829,8638,719,12992,12993,12994,49859,12996,13013,12982,8903,13000,13257,12746,13003,13004,17101,8910,13023,13008,13009,13010,13011,13012,13029,12998,13015,13016,13273,12762,13019,13020,17117,8926,17135,17120,17121,17122,17123,17124,17141,17110,17127,17128,17385,16874,17131,17132,17133,17134,8959,8944,8945,8946,8947,8948,8709,8934,8951,8952,9209,8698,8955,8956,8957,8958,13071,13056,13057,13058,13059,13060,13077,13302,13063,13064,13321,12810,13067,13068,17165,8974,13087,13072,13073,13074,13075,13076,13093,13062,13079,13080,13337,12826,13083,13084,17181,8990,13103,13088,13089,13090,13091,13092,13109,13078,13095,13096,13353,12842,13099,13100,17197,9006,13119,13104,13105,13106,13107,13108,13125,13094,13111,13112,13369,12858,13115,13116,17213,9022,13071,13120,13121,13122,13123,13124,13141,13110,13111,13128,13385,12874,13115,13132,17229,9038,13151,13136,13137,13138,13139,13140,13157,13126,13143,13144,13401,12890,13147,13148,17245,9054,13183,13168,13169,13170,13171,13172,13173,13174,13175,13176,13433,12922,13179,13180,17277,9086,13167,13152,13153,13154,13155,13156,13157,13158,13159,13160,13417,12906,13163,13164,17261,9070,12431,13184,13185,13186,14467,13188,13205,13174,13191,13192,13449,12938,13195,13196,17293,9102,13215,13200,13201,13202,13203,13204,13221,13190,13207,13208,13465,12954,13211,13212,17309,9118,13487,13472,13473,13474,13475,13476,13493,13462,13479,13480,13481,13482,13483,13484,17581,9390,12991,12976,12977,12978,12979,12980,12997,12966,12983,12984,12985,12986,12987,12988,17085,8894,975,13248,13249,13250,50115,13252,13269,13238,13255,13256,13513,13002,13259,13260,17357,9166,13279,13264,13265,13266,13267,13268,13285,13254,13271,13272,13529,13018,13275,13276,17373,9182,17391,17376,17377,17378,17379,17380,17397,17366,17383,17384,17641,17130,17387,17388,17389,17390,9215,9200,9201,9202,9203,9204,8965,9190,9207,9208,9465,8954,9211,9212,9213,9214,13327,13328,13345,13362,13315,13396,13413,13430,13319,13464,13737,13242,13323,13532,17645,9470,13327,13328,13329,13330,13331,13332,13349,13318,13383,13336,13593,13082,13371,13340,17437,9246,13327,13344,13345,13346,13347,13348,13365,13334,13383,13352,13609,13098,13371,13356,17453,9262,13327,13360,13361,13362,13363,13364,13381,13350,13383,13368,13625,13114,13371,13372,17469,9278,13327,13376,13377,13378,13379,13380,13381,13382,13383,13384,13641,13130,13371,13388,17485,9294,13327,13392,13393,13394,13395,13396,13413,13382,13383,13400,13657,13146,13371,13404,17501,9310,13327,13408,13425,13426,13411,13428,13429,13430,13383,13416,13689,13178,13371,13436,17533,9342,13327,13424,13409,13410,13427,13412,13413,13414,13383,13432,13673,13162,13371,13420,17517,9326,12431,13376,13377,13378,14467,13380,13381,13382,13447,13384,13641,13130,13195,13388,17485,9294,13327,13456,13457,13458,13459,13460,13477,13446,13383,13464,13721,13210,13371,13468,17565,9374,13583,13728,13729,13730,13731,13732,13749,13718,13639,13736,13737,13738,13627,13740,17837,9646,13071,13232,13233,13234,13235,13236,13253,13222,13127,13240,13241,13242,13115,13244,17341,9150,1231,13360,13361,13362,50371,13364,13365,13366,17607,13368,13625,13114,13515,13372,17469,9278,13327,13520,13521,13522,13523,13524,13541,13510,13383,13528,13785,13274,13371,13532,17629,9438,17423,17632,17633,17634,17635,17636,17653,17622,17479,17640,17897,17386,17467,17644,17645,17646,9231,9456,9457,9458,9459,9460,9221,9446,9287,9464,9721,9210,9275,9468,9469,9470,13583,13568,13569,13570,13571,13572,13589,13814,13575,13576,13833,13322,13579,13580,17677,9486,13599,13584,13585,13586,13587,13588,13605,13574,13591,13592,13849,13338,13595,13596,17693,9502,13615,13600,13601,13602,13603,13604,13621,13590,13607,13608,13865,13354,13611,13612,17709,9518,13631,13616,13617,13618,13619,13620,13637,13606,13623,13624,13881,13370,13627,13628,17725,9534,13583,13632,13633,13634,13635,13636,13653,13622,13655,13640,13897,13386,13627,13644,17741,9550,13663,13648,13649,13650,13651,13652,13669,13638,13655,13656,13913,13402,13659,13660,17757,9566,13695,13680,13681,13682,13683,13684,13685,13686,13687,13688,13945,13434,13691,13692,17789,9598,13679,13664,13665,13666,13667,13668,13669,13670,13671,13672,13929,13418,13675,13676,17773,9582,12431,13696,13697,13698,14467,13700,13717,13686,13703,13704,13961,13450,13195,13708,17805,9614,13727,13712,13713,13714,13715,13716,13733,13702,13719,13720,13977,13466,13723,13724,17821,9630,13999,13984,13985,13986,13987,13988,14005,13974,13991,13992,13993,13994,13995,13996,18093,9902,13503,13488,13489,13490,13491,13492,13509,13478,13495,13496,13497,13498,13499,13500,17597,9406,1487,13760,13761,13762,50627,13764,13781,13750,21959,13768,14025,13514,13771,13772,17869,9678,13791,13776,13777,13778,13779,13780,13797,13766,13783,13784,14041,13530,13787,13788,17885,9694,17903,17888,17889,17890,17891,17892,17909,17878,17895,17896,18153,17642,17899,17900,17901,17902,9727,9712,9713,9714,9715,9716,9477,9702,9719,9720,9977,9466,9723,9724,9725,9726,13855,13840,13841,13842,13843,13844,13845,13846,13847,13848,14105,13594,13851,13852,17949,9758,13871,13856,13857,13858,13859,13860,13861,13862,13863,13864,14121,13610,13867,13868,17965,9774,13887,13872,13873,13874,13875,13876,13877,13878,13879,13880,14137,13626,13883,13884,17981,9790,13903,13888,13889,13890,13891,13892,13893,13894,13895,13896,14153,13642,13899,13900,17997,9806,13919,13904,13905,13906,13907,13908,13909,13910,13911,13912,14169,13658,13915,13916,18013,9822,13935,13920,13921,13922,13923,13924,13925,13926,13927,13928,14185,13674,13931,13932,18029,9838,13951,13936,13937,13938,13939,13940,13941,13942,13943,13944,14201,13690,13947,13948,18045,9854,13967,13952,13953,13954,13955,13956,13957,13958,13959,13960,14217,13706,13963,13964,18061,9870,12447,13968,13969,13970,14483,13972,13973,13974,13975,13976,14233,13722,13211,13980,18077,9886,13999,13984,13985,13986,13987,13988,13989,13990,13991,13992,14249,13738,13995,13996,18093,9902,14271,14256,14257,14258,14259,14260,14261,14262,14263,14264,14265,14266,14267,14268,18365,10174,13775,13760,13761,13762,13763,13764,13765,13766,13767,13768,13769,13770,13771,13772,17869,9678,1759,14032,14033,14034,50899,14036,14037,14038,26327,14040,14297,13786,14043,14044,18141,9950,14063,14048,14049,14050,14051,14052,14053,14054,14055,14056,14313,13802,14059,14060,18157,9966,18175,18160,18161,18162,18163,18164,18165,18166,18167,18168,18425,17914,18171,18172,18173,18174,9743,9728,9729,9730,9731,9732,9733,9734,9735,9736,9993,9482,9739,9740,9741,9742,14335,14320,14321,14322,14323,14324,14325,14326,14327,14328,14585,14074,14331,14332,18429,10238,14095,14080,14081,14082,14083,14084,14085,14086,14087,14088,14345,13834,14091,14092,18189,9998,14111,14096,14097,14098,14099,14100,14101,14102,14103,14104,14361,13850,14107,14108,18205,10014,14127,14112,14113,14114,14115,14116,14117,14118,14119,14120,14377,13866,14123,14124,18221,10030,14143,14128,14129,14130,14131,14132,14133,14134,14135,14136,14393,13882,14139,14140,18237,10046,14159,14144,14145,14146,14147,14148,14149,14150,14151,14152,14409,13898,14155,14156,18253,10062,14175,14160,14161,14162,14163,14164,14165,14166,14167,14168,14425,13914,14171,14172,18269,10078,14191,14176,14177,14178,14179,14180,14181,14182,14183,14184,14441,13930,14187,14188,18285,10094,12415,14192,14193,14194,14451,14196,14197,14198,14199,14200,14457,13946,13179,14204,18301,10110,14223,14208,14209,14210,14211,14212,14213,14214,14215,14216,14473,13962,14219,14220,18317,10126,14495,14480,14481,14482,14483,14484,14485,14486,14487,14488,14489,14490,14491,14492,18589,10398,13999,13984,13985,13986,13987,13988,13989,13990,13991,13992,13993,13994,13995,13996,18093,9902,1983,14256,14257,14258,51123,14260,14261,14262,30647,14264,14521,14010,14267,14268,18365,10174,14287,14272,14273,14274,14275,14276,14277,14278,14279,14280,14537,14026,14283,14284,18381,10190,18399,18384,18385,18386,18387,18388,18389,18390,18391,18392,18649,18138,18395,18396,18397,18398,10223,10208,10209,10210,10211,10212,10213,10214,10215,10216,10473,9962,10219,10220,10221,10222,14351,12544,12801,13058,14339,13572,13845,14326,14343,14600,14857,15114,14347,15628,19981,12046,12319,14352,14353,14354,12563,14356,14373,14342,14359,14360,14617,14106,13083,14364,18461,10270,12335,14368,14369,14370,12835,14372,14389,14358,14375,14376,14633,14122,13099,14380,18477,10286,12351,14384,14385,14386,13107,14388,14405,14374,14391,14392,14649,14138,13115,14396,18493,10302,14351,13376,13377,13378,14403,13380,13397,13366,14471,13384,13385,13386,14395,13388,17485,9294,12383,14416,14417,14418,13651,14420,14437,14406,14423,14424,14681,14170,13147,14428,18525,10334,12415,14448,14449,14450,13939,14452,14453,14454,14455,14456,14713,14202,13179,14460,18557,10366,12399,14432,14433,14434,14179,14436,14437,14438,14439,14440,14697,14186,13163,14444,18541,10350,12431,14464,14465,14466,14467,14468,14485,14454,14471,14472,14473,14474,13195,14476,18573,10382,12447,14480,14481,14482,14739,14484,14501,14470,14487,14488,14745,14234,13211,14492,18589,10398,12463,14496,14753,14754,15011,14756,14773,14742,14503,14504,14761,14762,13227,14764,18861,10670,12479,14512,14257,14258,15283,14260,14277,14246,14519,14520,14265,14266,13243,14268,18365,10174,2255,13248,13249,13250,51395,13252,13269,13238,35015,13256,13257,13258,14539,13260,17357,9166,12511,14544,14545,14546,15827,14548,14565,14534,14551,14552,14809,14298,13275,14556,18653,10462,16623,18656,18657,18658,20195,18660,18677,18646,18663,18664,18921,18410,17387,18668,18669,18670,8447,10480,10481,10482,12275,10484,10245,10470,10487,10488,10745,10234,9211,10492,10493,10494,14607,14592,14593,14594,14595,14596,14613,14838,14599,14600,14857,14346,14603,14604,18701,10510,14623,14608,14609,14610,14611,14612,14629,14598,14615,14616,14873,14362,14619,14620,18717,10526,14639,14624,14625,14626,14627,14628,14645,14614,14631,14632,14889,14378,14635,14636,18733,10542,14655,14640,14641,14642,14643,14644,14661,14630,14647,14648,14905,14394,14651,14652,18749,10558,14607,14656,14657,14658,14659,14660,14677,14646,14743,14664,14921,14410,14651,14668,18765,10574,14687,14672,14673,14674,14675,14676,14693,14662,14679,14680,14937,14426,14683,14684,18781,10590,14719,14704,14705,14706,14707,14708,14709,14710,14711,14712,14969,14458,14715,14716,18813,10622,14703,14688,14689,14690,14691,14692,14693,14694,14695,14696,14953,14442,14699,14700,18797,10606,12431,14720,14721,14722,14467,14724,14741,14710,14727,14728,14985,14474,13195,14732,18829,10638,14751,14736,14737,14738,14739,14740,14757,14726,14743,14744,15001,14490,14747,14748,18845,10654,15023,15008,15009,15010,15011,15012,15029,14998,15015,15016,15017,15018,15019,15020,19117,10926,14527,14512,14513,14514,14515,14516,14533,14502,14519,14520,14521,14522,14523,14524,18621,10430,2511,14784,14785,14786,51651,14788,14805,14774,39367,14792,15049,14538,14795,14796,18893,10702,14815,14800,14801,14802,14803,14804,14821,14790,14807,14808,15065,14554,14811,14812,18909,10718,18927,18912,18913,18914,18915,18916,18933,18902,18919,18920,19177,18666,18923,18924,18925,18926,10751,10736,10737,10738,10739,10740,10501,10726,10743,10744,11001,10490,10747,10748,10749,10750,15119,15104,15105,15106,15107,15108,15125,15350,15111,15112,15113,15114,15115,15116,19213,11022,15135,15120,15121,15122,15123,15124,15141,15110,15127,15128,15129,15130,15131,15132,19229,11038,15151,15136,15137,15138,15139,15140,15157,15126,15143,15144,15145,15146,15147,15148,19245,11054,15167,15152,15153,15154,15155,15156,15173,15142,15159,15160,15161,15162,15163,15164,19261,11070,15119,15168,15169,15170,15171,15172,15189,15158,15271,15176,15177,15178,15163,15180,19277,11086,15199,15184,15185,15186,15187,15188,15205,15174,15191,15192,15193,15194,15195,15196,19293,11102,15231,15216,15217,15218,15219,15220,15221,15222,15223,15224,15225,15226,15227,15228,19325,11134,15215,15200,15201,15202,15203,15204,15205,15206,15207,15208,15209,15210,15211,15212,19309,11118,15247,15232,15233,15234,15235,15236,15253,15222,15239,15240,15241,15242,15243,15244,19341,11150,15263,15248,15249,15250,15251,15252,15269,15238,15255,15256,15257,15258,15259,15260,19357,11166,15279,15264,15265,15266,15267,15268,15285,15254,15271,15272,15273,15274,15275,15276,19373,11182,15295,15280,15281,15282,15283,15284,15301,15270,15287,15288,15289,15290,15291,15292,19389,11198,3023,15296,15297,15298,52163,15300,15317,15286,43975,15304,15305,15306,15307,15308,19405,11214,15327,15312,15313,15314,15315,15316,15333,15302,15319,15320,15321,15322,15323,15324,19421,11230,19439,19424,19425,19426,19427,19428,19445,19414,19431,19432,19433,19434,19435,19436,19437,19438,11263,11248,11249,11250,11251,11252,11013,11238,11255,11256,11257,11258,11259,11260,11261,11262,14863,14848,14849,14850,14851,14852,14869,15094,14855,14856,14857,14858,14859,14860,18957,10766,14879,14864,14865,14866,14867,14868,14885,14854,14871,14872,14873,14874,14875,14876,18973,10782,14895,14880,14881,14882,14883,14884,14901,14870,14887,14888,14889,14890,14891,14892,18989,10798,14911,14896,14897,14898,14899,14900,14917,14886,14903,14904,14905,14906,14907,14908,19005,10814,14863,14912,14913,14914,14915,14916,14933,14902,15031,14920,14921,14922,14907,14924,19021,10830,14943,14928,14929,14930,14931,14932,14949,14918,14935,14936,14937,14938,14939,14940,19037,10846,14975,14960,14961,14962,14963,14964,14965,14966,14967,14968,14969,14970,14971,14972,19069,10878,14959,14944,14945,14946,14947,14948,14949,14950,14951,14952,14953,14954,14955,14956,19053,10862,14991,14976,14977,14978,14979,14980,14997,14966,14983,14984,14985,14986,14987,14988,19085,10894,15007,14992,14993,14994,14995,14996,15013,14982,14999,15000,15001,15002,15003,15004,19101,10910,15023,15008,15009,15010,15011,15012,15029,14998,15015,15016,15017,15018,15019,15020,19117,10926,15039,15024,15025,15026,15027,15028,15045,15014,15031,15032,15033,15034,15035,15036,19133,10942,2767,15040,15041,15042,51907,15044,15061,15030,47815,15048,15049,15050,15051,15052,19149,10958,15071,15056,15057,15058,15059,15060,15077,15046,15063,15064,15065,15066,15067,15068,19165,10974,19183,19168,19169,19170,19171,19172,19189,19158,19175,19176,19177,19178,19179,19180,19181,19182,11007,10992,10993,10994,10995,10996,10757,10982,10999,11000,11001,11002,11003,11004,11005,11006,15375,7168,11265,15362,15363,23556,27669,31990,15367,39944,44297,47882,15371,56332,60429,64526,3103,15376,15377,15378,7187,15380,15397,15366,52247,15384,15641,15130,15387,15388,19485,11294,3119,15392,15393,15394,11299,15396,15413,15382,52263,15400,15657,15146,15403,15404,19501,11310,3135,15408,15409,15410,15411,15412,15429,15398,52279,15416,15673,15162,15419,15420,19517,11326,15375,19520,19521,19522,15427,19524,19541,19510,15559,19528,19785,19274,15419,19532,19533,19534,3167,15440,15441,15442,23635,15444,15461,15430,52311,15448,15705,15194,15451,15452,19549,11358,3199,15472,15473,15474,27763,15476,15477,15478,52343,15480,15737,15226,15483,15484,19581,11390,3183,15456,15457,15458,31843,15460,15461,15462,52327,15464,15721,15210,15467,15468,19565,11374,12431,52352,52353,52354,14467,52356,52373,52342,15495,52360,52617,52106,13195,52364,52365,52366,3231,15504,15505,15506,40083,15508,15525,15494,52375,15512,15769,15258,15515,15516,19613,11422,3503,15776,15777,15778,44451,15780,15797,15766,52647,15784,15785,15786,15787,15788,19885,11694,3007,15280,15281,15282,48051,15284,15301,15270,52151,15288,15289,15290,15291,15292,19389,11198,3279,15552,15553,15554,52419,15556,15573,15542,52423,15560,15817,15306,15563,15564,15565,15566,3295,15568,15569,15570,56531,15572,15589,15558,52439,15576,15833,15322,15579,15580,19677,11486,3311,15584,19681,19682,60643,19684,19701,19670,52455,15592,19945,19434,15595,19692,19693,19694,3327,15600,11505,11506,64755,11508,11269,11494,52471,15608,11769,11258,15611,11516,11517,11518,15631,15616,15617,15618,15619,15620,15637,15862,15623,15624,15881,15370,15627,15628,19725,11534,15647,15632,15633,15634,15635,15636,15653,15622,15639,15640,15897,15386,15643,15644,19741,11550,15663,15648,15649,15650,15651,15652,15669,15638,15655,15656,15913,15402,15659,15660,19757,11566,15679,15664,15665,15666,15667,15668,15685,15654,15671,15672,15929,15418,15675,15676,19773,11582,15631,15680,15681,15682,15683,15684,15701,15670,15831,15688,15945,15434,15675,15692,19789,11598,15711,15696,15697,15698,15699,15700,15717,15686,15703,15704,15961,15450,15707,15708,19805,11614,15743,15728,15729,15730,15731,15732,15733,15734,15735,15736,15993,15482,15739,15740,19837,11646,15727,15712,15713,15714,15715,15716,15717,15718,15719,15720,15977,15466,15723,15724,19821,11630,12431,15744,15745,15746,14467,15748,15765,15734,15751,15752,16009,15498,13195,15756,19853,11662,15775,15760,15761,15762,15763,15764,15781,15750,15767,15768,16025,15514,15771,15772,19869,11678,16047,16032,16033,16034,16035,16036,16053,16022,16039,16040,16041,16042,16043,16044,20141,11950,15551,15536,15537,15538,15539,15540,15557,15526,15543,15544,15545,15546,15547,15548,19645,11454,3535,15808,15809,15810,52675,15812,15829,15798,56775,15816,16073,15562,15819,15820,19917,11726,15839,15824,15825,15826,15827,15828,15845,15814,15831,15832,16089,15578,15835,15836,19933,11742,19951,19936,19937,19938,19939,19940,19957,19926,19943,19944,20201,19690,19947,19948,19949,19950,11775,11760,11761,11762,11763,11764,11525,11750,11767,11768,12025,11514,11771,11772,11773,11774,19983,19968,19969,19970,19971,19972,19989,20214,19975,19976,20233,19722,19979,19980,19981,19982,19999,19984,19985,19986,19987,19988,20005,19974,19991,19992,20249,19738,19995,19996,19997,19998,20015,20000,20001,20002,20003,20004,20021,19990,20007,20008,20265,19754,20011,20012,20013,20014,20031,20016,20017,20018,20019,20020,20037,20006,20023,20024,20281,19770,20027,20028,20029,20030,19983,20032,20033,20034,20035,20036,20053,20022,20199,20040,20297,19786,20027,20044,20045,20046,20063,20048,20049,20050,20051,20052,20069,20038,20055,20056,20313,19802,20059,20060,20061,20062,20095,20080,20081,20082,20083,20084,20085,20086,20087,20088,20345,19834,20091,20092,20093,20094,20079,20064,20065,20066,20067,20068,20069,20070,20071,20072,20329,19818,20075,20076,20077,20078,16527,20096,20097,20098,18563,20100,20117,20086,20103,20104,20361,19850,17291,20108,20109,20110,20127,20112,20113,20114,20115,20116,20133,20102,20119,20120,20377,19866,20123,20124,20125,20126,20399,20384,20385,20386,20387,20388,20405,20374,20391,20392,20393,20394,20395,20396,20397,20398,19903,19888,19889,19890,19891,19892,19909,19878,19895,19896,19897,19898,19899,19900,19901,19902,20175,20160,20161,20162,20163,20164,20181,20150,20167,20168,20425,19914,20171,20172,20173,20174,20191,20176,20177,20178,20179,20180,20197,20166,20183,20184,20441,19930,20187,20188,20189,20190,20207,20192,20193,20194,20195,20196,20213,20182,20199,20200,20457,19946,20203,20204,20205,20206,20223,20208,20209,20210,20211,20212,19973,20198,20215,20216,20473,19962,20219,20220,20221,20222,12047,12032,12033,12034,12035,12036,12053,12278,12039,12040,8201,11786,12043,12044,12045,12046,12063,12048,12049,12050,12051,12052,12069,12038,12055,12056,8217,11802,12059,12060,12061,12062,12079,12064,12065,12066,12067,12068,12085,12054,12071,12072,8233,11818,12075,12076,12077,12078,12095,12080,12081,12082,12083,12084,12101,12070,12087,12088,8249,11834,12091,12092,12093,12094,12047,12096,12097,12098,12099,12100,12117,12086,12279,12104,8265,11850,12091,12108,12109,12110,12127,12112,12113,12114,12115,12116,12133,12102,12119,12120,8281,11866,12123,12124,12125,12126,12159,12144,12145,12146,12147,12148,12149,12150,12151,12152,8313,11898,12155,12156,12157,12158,12143,12128,12129,12130,12131,12132,12133,12134,12135,12136,8297,11882,12139,12140,12141,12142,8335,12160,12161,12162,10371,12164,12181,12150,12167,12168,8329,11914,9099,12172,12173,12174,12191,12176,12177,12178,12179,12180,12197,12166,12183,12184,8345,11930,12187,12188,12189,12190,8367,8352,8353,8354,8355,8356,8373,8342,8359,8360,8361,8362,8363,8364,8365,8366,11967,11952,11953,11954,11955,11956,11973,11942,11959,11960,11961,11962,11963,11964,11965,11966,12239,12224,12225,12226,12227,12228,12245,12214,12231,12232,8393,11978,12235,12236,12237,12238,12255,12240,12241,12242,12243,12244,12261,12230,12247,12248,8409,11994,12251,12252,12253,12254,12271,12256,12257,12258,12259,12260,12277,12246,12263,12264,8425,12010,12267,12268,12269,12270,12287,12272,12273,12274,12275,12276,12037,12262,12279,12280,8441,12026,12283,12284,12285,12286,16384,16400,16386,16387,16448,16469,16406,16631,16512,16528,16650,20235,16580,16605,20494,12303,16400,16401,16419,16434,16401,16469,16486,16503,16400,16537,16810,20411,16404,16605,20718,12543,16416,16402,16419,16436,16418,16470,16487,16504,16416,16538,16811,20412,16420,16606,20719,12528,16432,16400,16417,16434,16435,16468,16485,16502,16432,16536,16809,20410,16436,16604,20717,12542,16384,16404,16452,16452,16452,16468,16468,16436,16520,16532,16708,20292,16588,16596,20548,12356,16464,16401,16419,16434,16469,16469,16486,16503,16464,16537,16810,20411,16468,16605,20718,12543,16496,16401,16419,16434,16502,16469,16486,16503,16496,16537,16810,20411,16500,16605,20718,12543,16480,16401,16419,16434,16487,16469,16486,16503,16480,16537,16810,20411,16484,16605,20718,12543,16384,18448,16512,16512,18500,18512,16528,16496,16520,18576,16768,20352,17612,18640,20608,12416,16528,16401,16419,16434,16537,16469,16486,16503,16528,16537,16810,20411,16532,16605,20718,12543,16800,16657,16675,16690,16810,16725,16742,16759,16800,16793,16810,16827,16804,16861,20974,12799,20400,20241,20259,20274,20411,20309,20326,20343,20400,20377,20394,20411,20404,20445,24558,16383,0,49172,16580,16580,49220,49236,16596,16564,136,49300,16836,20420,16588,49364,20676,12484,16592,16401,16419,16434,16605,16469,16486,16503,16592,16537,16810,20411,16596,16605,20718,12543,20704,20497,20515,20530,20718,20565,20582,20599,20704,20633,20906,24507,20708,20701,20718,20735,12528,12305,12323,12338,12543,12373,12390,12407,12528,12441,12714,16315,12532,12509,12526,12543,16640,16657,16675,16690,16640,16725,16742,16759,16641,16793,17066,16571,16644,16861,20974,12799,16640,16657,16659,16658,16660,16661,16678,16647,16664,16665,16922,16411,16716,16669,20766,12575,16641,16674,16675,16676,16677,16678,16695,16664,16665,16682,16939,16428,16717,16686,20783,12576,16655,16688,16689,16690,16691,16692,16709,16678,16663,16696,16953,16442,16715,16700,20797,12606,16640,16705,16707,16706,16708,16709,16710,16711,16664,16713,16970,16459,16716,16717,20814,12623,16640,16721,16723,16722,16724,16725,16742,16711,16664,16729,16986,16475,16716,16733,20830,12639,16640,16737,16755,16754,16740,16757,16758,16759,16664,16745,17018,16507,16716,16765,20862,12671,16640,16753,16739,16738,16756,16741,16742,16743,16664,16761,17002,16491,16716,16749,20846,12655,16512,16657,16659,16658,18564,16661,16662,16663,16776,16665,16922,16411,17548,16669,20766,12575,16640,16785,16787,16786,16788,16789,16806,16775,16664,16793,17050,16539,16716,16797,20894,12703,16896,17057,17059,17058,17060,17061,17078,17047,16920,17065,17066,17067,16972,17069,21166,12975,16384,16561,16563,16562,16564,16565,16582,16551,16408,16569,16570,16571,16460,16573,20670,12479,448,16705,16707,16706,49604,16709,16710,16711,4552,16713,16970,16459,16844,16717,20814,12623,16640,16849,16851,16850,16852,16853,16870,16839,16664,16857,17114,16603,16716,16861,20958,12767,20736,20961,20963,20962,20964,20965,20982,20951,20760,20969,21226,20715,20812,20973,20974,20975,12544,12785,12787,12786,12788,12789,12550,12775,12568,12793,13050,12539,12620,12797,12798,12799,16897,16914,16931,16948,16901,16982,16999,17016,16905,17050,17323,16828,16909,17118,21231,13040,16897,16914,16915,16916,16917,16918,16935,16904,16937,16922,17179,16668,16973,16926,21023,12816,16897,16930,16931,16932,16933,16934,16951,16920,16937,16938,17195,16684,16973,16942,21039,12832,16897,16946,16947,16948,16949,16950,16967,16936,16937,16954,17211,16700,16973,16958,21055,12848,16897,16962,16963,16964,16965,16966,16967,16968,16937,16970,17227,16716,16973,16974,21071,12864,16897,16978,16979,16980,16981,16982,16999,16968,16937,16986,17243,16732,16973,16990,21087,12880,16897,16994,17011,17012,16997,17014,17015,17016,16937,17002,17275,16764,16973,17022,21119,12912,16897,17010,16995,16996,17013,16998,16999,17000,16937,17018,17259,16748,16973,17006,21103,12896,16513,16930,16931,16932,18565,16934,16935,16936,17033,16938,17195,16684,17549,16942,21039,12832,16897,17042,17043,17044,17045,17046,17063,17032,16937,17050,17307,16796,16973,17054,21151,12944,17153,17314,17315,17316,17317,17318,17335,17304,17193,17322,17323,17324,17229,17326,21423,13216,16641,16818,16819,16820,16821,16822,16839,16808,16681,16826,16827,16828,16717,16830,20927,12720,705,16962,16963,16964,49861,16966,16967,16968,8905,16970,17227,16716,17101,16974,21071,12864,16897,17106,17107,17108,17109,17110,17127,17096,16937,17114,17371,16860,16973,17118,21215,13008,20993,21218,21219,21220,21221,21222,21239,21208,21033,21226,21483,20972,21069,21230,21231,21216,12801,13042,13043,13044,13045,13046,12807,13032,12841,13050,13307,12796,12877,13054,13055,13040,17167,17168,17185,17202,17155,17236,17253,17270,17159,17304,17577,17082,17163,17372,21485,13310,17167,17168,17169,17170,17171,17172,17189,17158,17207,17176,17433,16922,17227,17180,21277,13086,17167,17184,17185,17186,17187,17188,17205,17174,17207,17192,17449,16938,17227,17196,21293,13102,17167,17200,17201,17202,17203,17204,17221,17190,17207,17208,17465,16954,17227,17212,21309,13118,17167,17216,17217,17218,17219,17220,17221,17222,17207,17224,17481,16970,17227,17228,21325,13134,17167,17232,17233,17234,17235,17236,17253,17222,17207,17240,17497,16986,17227,17244,21341,13150,17167,17248,17265,17266,17251,17268,17269,17270,17207,17256,17529,17018,17227,17276,21373,13182,17167,17264,17249,17250,17267,17252,17253,17254,17207,17272,17513,17002,17227,17260,21357,13166,16527,17200,17201,17202,18563,17204,17205,17206,17287,17208,17465,16954,17547,17212,21309,13118,17167,17296,17297,17298,17299,17300,17317,17286,17207,17304,17561,17050,17227,17308,21405,13214,17423,17568,17569,17570,17571,17572,17589,17558,17463,17576,17577,17578,17483,17580,21677,13486,16911,17072,17073,17074,17075,17076,17093,17062,16951,17080,17081,17082,16971,17084,21181,12990,975,17216,17217,17218,50115,17220,17221,17222,13255,17224,17481,16970,17355,17228,21325,13134,17167,17360,17361,17362,17363,17364,17381,17350,17207,17368,17625,17114,17227,17372,21469,13278,21263,21472,21473,21474,21475,21476,21493,21462,21303,21480,21737,21226,21323,21484,21485,21486,13071,13296,13297,13298,13299,13300,13061,13286,13111,13304,13561,13050,13131,13308,13309,13310,17408,17408,17443,17458,17408,17488,17510,17527,17412,17408,17834,17339,17412,17616,21742,13567,17408,17425,17427,17426,17428,17429,17430,17431,17480,17433,17690,17179,17484,17437,21534,13343,17409,17442,17443,17444,17445,17446,17447,17448,17481,17450,17707,17196,17485,17454,21551,13344,17423,17456,17457,17458,17459,17460,17461,17462,17479,17464,17721,17210,17483,17468,21565,13374,17472,17473,17475,17474,17476,17477,17478,17479,17480,17481,17738,17227,17484,17485,21582,13391,17408,17489,17491,17490,17492,17493,17494,17495,17480,17497,17754,17243,17484,17501,21598,13407,17408,17505,17507,17506,17508,17509,17510,17511,17480,17513,17770,17259,17484,17517,21614,13423,17408,17521,17523,17522,17524,17525,17526,17527,17480,17529,17786,17275,17484,17533,21630,13439,16512,18561,17475,17474,18564,18501,17478,17479,17544,18569,17738,17227,17548,18509,21582,13391,17408,17553,17555,17554,17556,17557,17558,17559,17480,17561,17818,17307,17484,17565,21662,13471,17664,17825,17827,17826,17828,17829,17830,17831,17736,17833,17834,17835,17740,17837,21934,13743,17152,17329,17331,17330,17332,17333,17334,17335,17224,17337,17338,17339,17228,17341,21438,13247,1216,50369,17475,17474,50372,50245,17478,17479,17608,50377,17738,17227,17612,50253,21582,13391,17408,17617,17619,17618,17620,17621,17622,17623,17480,17625,17882,17371,17484,17629,21726,13535,21504,21729,21731,21730,21732,21733,21734,21735,21576,21737,21994,21483,21580,21741,21742,21743,13312,13553,13555,13554,13556,13557,13558,13559,13384,13561,13818,13307,13388,13565,13566,13567,17664,17681,17699,17714,17664,17749,17766,17783,17669,17817,18090,17595,17668,17885,21998,13823,17664,17681,17683,17682,17684,17685,17702,17671,17752,17689,17946,17435,17740,17693,21790,13599,17665,17698,17699,17700,17701,17702,17719,17688,17753,17706,17963,17452,17741,17710,21807,13600,17679,17712,17713,17714,17715,17716,17733,17702,17751,17720,17977,17466,17739,17724,21821,13630,17664,17729,17731,17730,17732,17733,17734,17735,17752,17737,17994,17483,17740,17741,21838,13647,17664,17745,17747,17746,17748,17749,17766,17735,17752,17753,18010,17499,17740,17757,21854,13663,17664,17761,17779,17778,17764,17781,17782,17783,17752,17769,18042,17531,17740,17789,21886,13695,17664,17777,17763,17762,17780,17765,17766,17767,17752,17785,18026,17515,17740,17773,21870,13679,16512,17745,17747,17746,18564,17749,17750,17751,17800,17753,18010,17499,17548,17757,21854,13663,17664,17809,17811,17810,17812,17813,17830,17799,17752,17817,18074,17563,17740,17821,21918,13727,17920,18081,18083,18082,18084,18085,18102,18071,18008,18089,18090,18091,17996,18093,22190,13999,17408,17585,17587,17586,17588,17589,17606,17575,17496,17593,17594,17595,17484,17597,21694,13503,1472,17729,17731,17730,50628,17733,17734,17735,21960,17737,17994,17483,17868,17741,21838,13647,17664,17873,17875,17874,17876,17877,17894,17863,17752,17881,18138,17627,17740,17885,21982,13791,21760,21985,21987,21986,21988,21989,22006,21975,21848,21993,22250,21739,21836,21997,21998,21999,13568,13809,13811,13810,13812,13813,13574,13799,13656,13817,14074,13563,13644,13821,13822,13823,17936,17937,17955,17970,17936,18005,18022,18039,17942,18073,18346,17851,17940,18141,22254,14079,17920,17953,17955,17954,17940,17957,17958,17959,18024,17961,18218,17707,17996,17965,22062,13871,17921,17954,17971,17972,17957,17974,17975,17976,18025,17962,18235,17724,17997,17982,22079,13872,17935,17968,17985,17986,17971,17988,17989,17990,18023,17976,18249,17738,17995,17996,22093,13902,18000,17985,17987,17986,18004,17989,17990,17991,18008,17993,18250,17739,18012,17997,22094,13903,17920,18001,18019,18018,18004,18021,18022,18023,18024,18009,18282,17771,17996,18029,22126,13935,17920,18017,18035,18034,18020,18037,18038,18039,18024,18025,18298,17787,17996,18045,22142,13951,17920,18033,18051,18050,18036,18053,18054,18055,18024,18041,18314,17803,17996,18061,22158,13967,16528,18017,18019,18018,18580,18021,18022,18023,18072,18025,18282,17771,17564,18029,22126,13935,17920,18081,18083,18082,18068,18085,18086,18087,18024,18089,18346,17835,17996,18093,22190,13999,18176,18337,18355,18354,18340,18357,18358,18359,18280,18345,18362,18363,18252,18365,22462,14271,17664,17841,17859,17858,17844,17861,17862,17863,17768,17849,17866,17867,17740,17869,21966,13775,1744,17985,17987,17986,50900,17989,17990,17991,26328,17993,18250,17739,18140,17997,22094,13903,17920,18129,18147,18146,18132,18149,18150,18151,18024,18137,18410,17899,17996,18157,22254,14063,22016,22241,22259,22258,22244,22261,22262,22263,22120,22249,22522,22011,22092,22269,22270,22271,13824,14065,13827,13826,14068,13829,13830,13831,13928,14073,14090,13579,13900,13837,13838,13839,18416,18193,18211,18226,18416,18261,18278,18295,18423,18329,18602,18107,18420,18397,22510,14335,18176,18177,18179,18178,18196,18181,18182,18183,18296,18185,18442,17931,18252,18189,22286,14095,18177,18210,18195,18196,18213,18198,18199,18200,18297,18218,18459,17948,18253,18206,22303,14096,18191,18224,18209,18210,18227,18212,18213,18214,18295,18232,18473,17962,18251,18220,22317,14126,18224,18241,18243,18242,18228,18245,18246,18247,18232,18249,18506,17995,18236,18253,22350,14159,18176,18257,18243,18242,18260,18245,18246,18247,18296,18265,18506,17995,18252,18253,22350,14159,18176,18273,18259,18258,18276,18261,18262,18263,18296,18281,18522,18011,18252,18269,22366,14175,18176,18289,18275,18274,18292,18277,18278,18279,18296,18297,18538,18027,18252,18285,22382,14191,16496,18289,18291,18290,18548,18293,18294,18295,18296,18297,18554,18043,17532,18301,22398,14207,18176,18305,18307,18306,18324,18309,18310,18311,18296,18313,18570,18059,18252,18317,22414,14223,18432,18593,18579,18578,18596,18581,18582,18583,18552,18601,18586,18587,18508,18589,22686,14495,17920,18097,18083,18082,18100,18085,18086,18087,18040,18105,18090,18091,17996,18093,22190,13999,1968,18241,18243,18242,51124,18245,18246,18247,30648,18249,18506,17995,18364,18253,22350,14159,18176,18385,18371,18370,18388,18373,18374,18375,18296,18393,18634,18123,18252,18381,22478,14287,22272,22497,22483,22482,22500,22485,22486,22487,22392,22505,22746,22235,22348,22493,22494,22495,14080,14321,14307,14306,14324,14309,14310,14311,14200,14329,14570,14059,14156,14317,14318,14319,18560,16768,16899,17154,18560,17792,17942,18423,18568,18816,18954,19211,18564,19840,24078,16143,16400,18561,18563,18562,16660,18565,18566,18567,18456,18569,18826,18315,17436,18573,22670,14479,16417,18562,18563,18564,16933,18566,18567,18568,18473,18570,18827,18316,17453,18574,22671,14464,16447,18560,18561,18562,17203,18564,18565,18566,18487,18568,18825,18314,17467,18572,22669,14478,18560,17537,17475,17474,18564,17541,17494,17463,18568,17545,17482,17483,18572,17549,21582,13391,16464,18561,18563,18562,17748,18565,18566,18567,18520,18569,18826,18315,17500,18573,22670,14479,16496,18561,18563,18562,18036,18565,18566,18567,18552,18569,18826,18315,17532,18573,22670,14479,16480,18561,18563,18562,18276,18565,18566,18567,18536,18569,18826,18315,17516,18573,22670,14479,16512,18561,18563,18562,18564,18565,18582,18551,18568,18569,18570,18571,17548,18573,22670,14479,16528,18561,18563,18562,18836,18565,18566,18567,18584,18569,18826,18315,17564,18573,22670,14479,16544,18817,18819,18818,19108,18821,18822,18823,18600,18825,18826,18827,17580,18829,22926,14735,16560,18305,18307,18306,19380,18309,18310,18311,18616,18313,18314,18315,17596,18317,22414,14223,2176,50305,17603,17602,51332,50309,17622,17591,34952,50313,17610,17611,18572,50317,21710,13519,16592,18561,18563,18562,19924,18565,18566,18567,18648,18569,18826,18315,17628,18573,22670,14479,20704,22657,22659,22658,24292,22661,22662,22663,22760,22665,22922,22411,21740,22669,22670,22671,12528,14465,14467,14466,16372,14469,14470,14471,14584,14473,14730,14219,13564,14477,14478,14479,18688,18705,18723,18738,18688,18773,18790,18807,18697,18841,19114,18619,18692,18909,23022,14847,18688,18705,18707,18706,18708,18709,18726,18695,18840,18713,18970,18459,18764,18717,22814,14623,18689,18722,18723,18724,18725,18726,18743,18712,18841,18730,18987,18476,18765,18734,22831,14624,18703,18736,18737,18738,18739,18740,18757,18726,18839,18744,19001,18490,18763,18748,22845,14654,18688,18753,18755,18754,18756,18757,18758,18759,18840,18761,19018,18507,18764,18765,22862,14671,18688,18769,18771,18770,18772,18773,18790,18759,18840,18777,19034,18523,18764,18781,22878,14687,18688,18785,18803,18802,18788,18805,18806,18807,18840,18793,19066,18555,18764,18813,22910,14719,18688,18801,18787,18786,18804,18789,18790,18791,18840,18809,19050,18539,18764,18797,22894,14703,16512,18833,18835,18834,18564,18837,18838,18839,18824,18841,19098,18587,17548,18845,22942,14751,18688,18833,18835,18834,18836,18837,18854,18823,18840,18841,19098,18587,18764,18845,22942,14751,18944,19105,19107,19106,19108,19109,19126,19095,19096,19113,19114,19115,19020,19117,23214,15023,18432,18609,18611,18610,18612,18613,18630,18599,18584,18617,18618,18619,18508,18621,22718,14527,2496,18753,18755,18754,51652,18757,18758,18759,39368,18761,19018,18507,18892,18765,22862,14671,18688,18897,18899,18898,18900,18901,18918,18887,18840,18905,19162,18651,18764,18909,23006,14815,22784,23009,23011,23010,23012,23013,23030,22999,22936,23017,23274,22763,22860,23021,23022,23023,14592,14833,14835,14834,14836,14837,14598,14823,14744,14841,15098,14587,14668,14845,14846,14847,19200,19217,19235,19250,19200,19285,19302,19319,19210,19353,19370,19387,19204,19421,23534,15359,19200,19217,19219,19218,19220,19221,19238,19207,19368,19225,19226,19227,19276,19229,23326,15135,19201,19234,19235,19236,19237,19238,19255,19224,19369,19242,19243,19244,19277,19246,23343,15136,19215,19248,19249,19250,19251,19252,19269,19238,19367,19256,19257,19258,19275,19260,23357,15166,19200,19265,19267,19266,19268,19269,19270,19271,19368,19273,19274,19275,19276,19277,23374,15183,19200,19281,19283,19282,19284,19285,19302,19271,19368,19289,19290,19291,19276,19293,23390,15199,19200,19297,19315,19314,19300,19317,19318,19319,19368,19305,19322,19323,19276,19325,23422,15231,19200,19313,19299,19298,19316,19301,19302,19303,19368,19321,19306,19307,19276,19309,23406,15215,19328,19361,19363,19362,19332,19365,19366,19367,19336,19369,19370,19371,19340,19373,23470,15279,19200,19345,19347,19346,19348,19349,19366,19335,19368,19353,19354,19355,19276,19357,23454,15263,19200,19361,19363,19362,19364,19365,19382,19351,19368,19369,19370,19371,19276,19373,23470,15279,19200,19377,19379,19378,19380,19381,19398,19367,19368,19385,19386,19387,19276,19389,23486,15295,3008,19265,19267,19266,52164,19269,19270,19271,43976,19273,19274,19275,19404,19277,23374,15183,19200,19409,19411,19410,19412,19413,19430,19399,19368,19417,19418,19419,19276,19421,23518,15327,23296,23521,23523,23522,23524,23525,23542,23511,23464,23529,23530,23531,23372,23533,23534,23535,15104,15345,15347,15346,15348,15349,15110,15335,15272,15353,15354,15355,15180,15357,15358,15359,18944,18961,18979,18994,18944,19029,19046,19063,18955,19097,19114,19131,18948,19165,23278,15103,18944,18961,18963,18962,18964,18965,18982,18951,19128,18969,18970,18971,19020,18973,23070,14879,18945,18978,18979,18980,18981,18982,18999,18968,19129,18986,18987,18988,19021,18990,23087,14880,18959,18992,18993,18994,18995,18996,19013,18982,19127,19000,19001,19002,19019,19004,23101,14910,18944,19009,19011,19010,19012,19013,19014,19015,19128,19017,19018,19019,19020,19021,23118,14927,18944,19025,19027,19026,19028,19029,19046,19015,19128,19033,19034,19035,19020,19037,23134,14943,18944,19041,19059,19058,19044,19061,19062,19063,19128,19049,19066,19067,19020,19069,23166,14975,18944,19057,19043,19042,19060,19045,19046,19047,19128,19065,19050,19051,19020,19053,23150,14959,19072,19121,19123,19122,19076,19125,19126,19127,19080,19129,19130,19131,19084,19133,23230,15039,18944,19089,19091,19090,19092,19093,19110,19079,19128,19097,19098,19099,19020,19101,23198,15007,18944,19105,19107,19106,19108,19109,19126,19095,19128,19113,19114,19115,19020,19117,23214,15023,18944,19121,19123,19122,19124,19125,19142,19111,19128,19129,19130,19131,19020,19133,23230,15039,2752,19009,19011,19010,51908,19013,19014,19015,47816,19017,19018,19019,19148,19021,23118,14927,18944,19153,19155,19154,19156,19157,19174,19143,19128,19161,19162,19163,19020,19165,23262,15071,23040,23265,23267,23266,23268,23269,23286,23255,23224,23273,23274,23275,23116,23277,23278,23279,14848,15089,15091,15090,15092,15093,14854,15079,15032,15097,15098,15099,14924,15101,15102,15103,19520,7232,11267,15362,19520,23616,27670,31991,19532,40000,44298,47883,19524,56384,60430,64527,3088,19521,19523,19522,7188,19525,19526,19527,52248,19529,19786,19275,19484,19533,23630,15439,3105,19522,19523,19524,11301,19526,19527,19528,52265,19530,19787,19276,19501,19534,23631,15424,3135,19520,19521,19522,15411,19524,19525,19526,52279,19528,19785,19274,19515,19532,23629,15438,19520,19521,19523,19522,19524,19525,19542,19511,19528,19529,19786,19275,19532,19533,19534,19535,3152,19521,19523,19522,23636,19525,19526,19527,52312,19529,19786,19275,19548,19533,23630,15439,3184,19521,19523,19522,27764,19525,19526,19527,52344,19529,19786,19275,19580,19533,23630,15439,3168,19521,19523,19522,31844,19525,19526,19527,52328,19529,19786,19275,19564,19533,23630,15439,16448,51265,52355,52354,18500,51269,52374,52343,19528,51273,52618,52107,17484,51277,52366,52367,3216,19521,19523,19522,40084,19525,19526,19527,52376,19529,19786,19275,19612,19533,23630,15439,3488,19777,19779,19778,44452,19781,19782,19783,52648,19785,19786,19787,19884,19789,23886,15695,2992,19265,19267,19266,48052,19269,19270,19271,52152,19273,19274,19275,19388,19277,23374,15183,3136,52289,19651,19650,52292,19525,19670,19639,52296,52297,19914,19403,19532,19533,19662,19663,3280,19521,19523,19522,56532,19525,19526,19527,52440,19529,19786,19275,19676,19533,23630,15439,3296,23617,23619,23618,60644,23621,23622,23623,52456,23625,23882,23371,19692,23629,23630,23631,3312,15425,15427,15426,64756,15429,15430,15431,52472,15433,15690,15179,19708,15437,15438,15439,19712,19729,19747,19762,19712,19797,19814,19831,19725,19865,20138,19643,19716,19933,24046,15871,19712,19729,19731,19730,19732,19733,19750,19719,19928,19737,19994,19483,19788,19741,23838,15647,19713,19746,19747,19748,19749,19750,19767,19736,19929,19754,20011,19500,19789,19758,23855,15648,19727,19760,19761,19762,19763,19764,19781,19750,19927,19768,20025,19514,19787,19772,23869,15678,19712,19777,19779,19778,19780,19781,19782,19783,19928,19785,20042,19531,19788,19789,23886,15695,19712,19793,19795,19794,19796,19797,19814,19783,19928,19801,20058,19547,19788,19805,23902,15711,19712,19809,19827,19826,19812,19829,19830,19831,19928,19817,20090,19579,19788,19837,23934,15743,19712,19825,19811,19810,19828,19813,19814,19815,19928,19833,20074,19563,19788,19821,23918,15727,16512,19921,19923,19922,18564,19925,19926,19927,19848,19929,20186,19675,17548,19933,24030,15839,19712,19857,19859,19858,19860,19861,19878,19847,19928,19865,20122,19611,19788,19869,23966,15775,19968,20129,20131,20130,20132,20133,20150,20119,20184,20137,20138,20139,20044,20141,24238,16047,19456,19633,19635,19634,19636,19637,19654,19623,19672,19641,19642,19643,19532,19645,23742,15551,3520,19777,19779,19778,52676,19781,19782,19783,56776,19785,20042,19531,19916,19789,23886,15695,19712,19921,19923,19922,19924,19925,19942,19911,19928,19929,20186,19675,19788,19933,24030,15839,23808,24033,24035,24034,24036,24037,24054,24023,24024,24041,24298,23787,23884,24045,24046,24047,15616,15857,15859,15858,15860,15861,15622,15847,15832,15865,16122,15611,15692,15869,15870,15871,24064,24081,24099,24114,24064,24149,24166,24183,24078,24217,24490,23995,24068,24285,24302,24319,24064,24081,24083,24082,24084,24085,24102,24071,24296,24089,24346,23835,24140,24093,24094,24095,24065,24098,24099,24100,24101,24102,24119,24088,24297,24106,24363,23852,24141,24110,24111,24096,24079,24112,24113,24114,24115,24116,24133,24102,24295,24120,24377,23866,24139,24124,24125,24126,24064,24129,24131,24130,24132,24133,24134,24135,24296,24137,24394,23883,24140,24141,24142,24143,24064,24145,24147,24146,24148,24149,24166,24135,24296,24153,24410,23899,24140,24157,24158,24159,24064,24161,24179,24178,24164,24181,24182,24183,24296,24169,24442,23931,24140,24189,24190,24191,24064,24177,24163,24162,24180,24165,24166,24167,24296,24185,24426,23915,24140,24173,24174,24175,20608,24289,24291,24290,22660,24293,24294,24295,24200,24297,24554,24043,21644,24301,24302,24303,24064,24209,24211,24210,24212,24213,24230,24199,24296,24217,24474,23963,24140,24221,24222,24223,24320,24481,24483,24482,24484,24485,24502,24471,24552,24489,24490,24491,24396,24493,24494,24495,23808,23985,23987,23986,23988,23989,24006,23975,24040,23993,23994,23995,23884,23997,23998,23999,24256,24129,24131,24130,24260,24133,24134,24135,24264,24137,24394,23883,24268,24141,24142,24143,24064,24273,24275,24274,24276,24277,24294,24263,24296,24281,24538,24027,24140,24285,24286,24287,24064,24289,24291,24290,24292,24293,24310,24279,24296,24297,24554,24043,24140,24301,24302,24303,24064,24305,24307,24306,24308,24309,24070,24295,24296,24313,24570,24059,24140,24317,24318,24319,16128,16145,16163,16178,16128,16213,16230,16247,16143,16281,12458,16059,16132,16349,16366,16383,16128,16145,16147,16146,16148,16149,16166,16135,16376,16153,12314,15899,16204,16157,16158,16159,16129,16162,16163,16164,16165,16166,16183,16152,16377,16170,12331,15916,16205,16174,16175,16160,16143,16176,16177,16178,16179,16180,16197,16166,16375,16184,12345,15930,16203,16188,16189,16190,16128,16193,16195,16194,16196,16197,16198,16199,16376,16201,12362,15947,16204,16205,16206,16207,16128,16209,16211,16210,16212,16213,16230,16199,16376,16217,12378,15963,16204,16221,16222,16223,16128,16225,16243,16242,16228,16245,16246,16247,16376,16233,12410,15995,16204,16253,16254,16255,16128,16241,16227,16226,16244,16229,16230,16231,16376,16249,12394,15979,16204,16237,16238,16239,12416,16369,16371,16370,14468,16373,16374,16375,16264,16377,12538,16123,13452,16381,16382,16383,16128,16273,16275,16274,16276,16277,16294,16263,16376,16281,12442,16027,16204,16285,16286,16287,12288,12449,12451,12450,12452,12453,12470,12439,12536,12457,12458,12459,12364,12461,12462,12463,15872,16049,16051,16050,16052,16053,16070,16039,16120,16057,16058,16059,15948,16061,16062,16063,16320,16193,16195,16194,16324,16197,16198,16199,16328,16201,12362,15947,16332,16205,16206,16207,16128,16337,16339,16338,16340,16341,16358,16327,16376,16345,12506,16091,16204,16349,16350,16351,16128,16353,16355,16354,16356,16357,16374,16343,16376,16361,12522,16107,16204,16365,16366,16367,16128,16369,16371,16370,16372,16373,16134,16359,16376,16377,12538,16123,16204,16381,16382,16383,20480,20481,20482,20483,20480,20485,20502,20727,20480,20489,20746,24331,20485,20493,24590,16399,20496,20497,20499,20498,20497,20501,20518,20487,20496,20505,20762,24347,20501,20509,24606,16415,20512,20513,20515,20516,20514,20518,20535,20504,20512,20521,20779,24364,20517,20526,24623,16416,20528,20529,20529,20530,20531,20532,20549,20518,20528,20537,20793,24378,20533,20540,24637,16446,20480,20548,20548,20548,20548,20548,20564,20532,20488,20548,20804,24388,20572,20548,24644,16452,20560,20561,20563,20562,20565,20565,20582,20551,20560,20569,20826,24411,20565,20573,24670,16479,20592,20593,20595,20594,20598,20597,20598,20599,20592,20601,20858,24443,20597,20605,24702,16511,20576,20577,20579,20578,20583,20581,20582,20583,20576,20585,20842,24427,20581,20589,24686,16495,20608,20608,20608,20608,22660,20608,20624,20592,20616,20608,20864,24448,21900,20608,24704,16512,20624,20625,20627,20626,20633,20629,20646,20615,20624,20633,20890,24475,20629,20637,24734,16543,20896,20897,20899,20898,20906,20901,20918,20887,20896,20905,20906,20907,20901,20909,25006,16815,24496,24497,24499,24498,24507,24501,24518,24487,24496,24505,24506,24507,24501,24509,28606,20415,192,20677,20677,20677,49348,20677,20693,20661,200,20677,20933,24517,20684,20677,24773,16581,20688,20689,20691,20690,20701,20693,20710,20679,20688,20697,20954,24539,20693,20701,24798,16607,24800,24801,24803,24802,24814,24805,24822,24791,24800,24809,25066,28651,24805,24813,24814,24815,16624,16625,16627,16626,16639,16629,16390,16615,16624,16633,16890,20475,16629,16637,16638,16639,20736,20737,20739,20738,20736,20741,20758,20983,20737,20745,21002,20491,20741,20749,24846,16655,20752,20753,20755,20754,20756,20757,20774,20743,20760,20761,21018,20507,20764,20765,24862,16671,20769,20770,20771,20772,20773,20774,20791,20760,20777,20778,21035,20524,20781,20782,24879,16672,20799,20784,20785,20786,20787,20788,20805,20774,20791,20792,21049,20538,20795,20796,24893,16702,20736,20801,20803,20802,20804,20805,20822,20791,20760,20809,21066,20555,20828,20813,24910,16719,20816,20817,20819,20818,20820,20821,20838,20807,20824,20825,21082,20571,20828,20829,24926,16735,20848,20849,20851,20850,20852,20853,20854,20855,20856,20857,21114,20603,20860,20861,24958,16767,20832,20833,20835,20834,20836,20837,20838,20839,20840,20841,21098,20587,20844,20845,24942,16751,20608,20865,20867,20866,22660,20869,20886,20855,20872,20873,21130,20619,21900,20877,24974,16783,20880,20881,20883,20882,20884,20885,20902,20871,20888,20889,21146,20635,20892,20893,24990,16799,21152,21153,21155,21154,21156,21157,21174,21143,21160,21161,21162,21163,21164,21165,25262,17071,20656,20657,20659,20658,20660,20661,20678,20647,20664,20665,20666,20667,20668,20669,24766,16575,448,20929,20931,20930,49604,20933,20950,20919,4552,20937,21194,20683,20940,20941,25038,16847,20944,20945,20947,20946,20948,20949,20966,20935,20952,20953,21210,20699,20956,20957,25054,16863,25056,25057,25059,25058,25060,25061,25078,25047,25064,25065,25322,24811,25068,25069,25070,25071,16880,16881,16883,16882,16884,16885,16646,16871,16888,16889,17146,16635,16892,16893,16894,16895,20993,20994,20995,20996,20997,20998,21015,21240,21001,21002,21259,20748,21005,21006,25103,16896,21009,21010,21011,21012,21013,21014,21031,21000,21017,21018,21275,20764,21021,21022,25119,16912,21025,21026,21027,21028,21029,21030,21047,21016,21033,21034,21291,20780,21037,21038,25135,16928,21041,21042,21043,21044,21045,21046,21063,21032,21049,21050,21307,20796,21053,21054,25151,16944,20993,21058,21059,21060,21061,21062,21079,21048,21033,21066,21323,20812,21085,21070,25167,16960,21073,21074,21075,21076,21077,21078,21095,21064,21081,21082,21339,20828,21085,21086,25183,16976,21105,21106,21107,21108,21109,21110,21111,21112,21113,21114,21371,20860,21117,21118,25215,17008,21089,21090,21091,21092,21093,21094,21095,21096,21097,21098,21355,20844,21101,21102,25199,16992,20609,21122,21123,21124,22661,21126,21143,21112,21129,21130,21387,20876,21901,21134,25231,17024,21137,21138,21139,21140,21141,21142,21159,21128,21145,21146,21403,20892,21149,21150,25247,17040,21409,21410,21411,21412,21413,21414,21431,21400,21417,21418,21419,21420,21421,21422,25519,17312,20913,20914,20915,20916,20917,20918,20935,20904,20921,20922,20923,20924,20925,20926,25023,16816,705,21186,21187,21188,49861,21190,21207,21176,8905,21194,21451,20940,21197,21198,25295,17088,21201,21202,21203,21204,21205,21206,21223,21192,21209,21210,21467,20956,21213,21214,25311,17104,25313,25314,25315,25316,25317,25318,25335,25304,25321,25322,25579,25068,25325,25326,25327,25312,17137,17138,17139,17140,17141,17142,16903,17128,17145,17146,17403,16892,17149,17150,17151,17136,21263,21248,21249,21250,21251,21252,21269,21494,21255,21256,21513,21002,21259,21260,25357,17166,21279,21264,21265,21266,21267,21268,21285,21254,21271,21272,21529,21018,21275,21276,25373,17182,21295,21280,21281,21282,21283,21284,21301,21270,21287,21288,21545,21034,21291,21292,25389,17198,21311,21296,21297,21298,21299,21300,21317,21286,21303,21304,21561,21050,21307,21308,25405,17214,21263,21312,21313,21314,21315,21316,21333,21302,21303,21320,21577,21066,21339,21324,25421,17230,21343,21328,21329,21330,21331,21332,21349,21318,21335,21336,21593,21082,21339,21340,25437,17246,21375,21360,21361,21362,21363,21364,21365,21366,21367,21368,21625,21114,21371,21372,25469,17278,21359,21344,21345,21346,21347,21348,21349,21350,21351,21352,21609,21098,21355,21356,25453,17262,20623,21376,21377,21378,22659,21380,21397,21366,21383,21384,21641,21130,21899,21388,25485,17294,21407,21392,21393,21394,21395,21396,21413,21382,21399,21400,21657,21146,21403,21404,25501,17310,21679,21664,21665,21666,21667,21668,21685,21654,21671,21672,21673,21674,21675,21676,25773,17582,21183,21168,21169,21170,21171,21172,21189,21158,21175,21176,21177,21178,21179,21180,25277,17086,975,21440,21441,21442,50115,21444,21461,21430,13255,21448,21705,21194,21451,21452,25549,17358,21471,21456,21457,21458,21459,21460,21477,21446,21463,21464,21721,21210,21467,21468,25565,17374,25583,25568,25569,25570,25571,25572,25589,25558,25575,25576,25833,25322,25579,25580,25581,25582,17407,17392,17393,17394,17395,17396,17157,17382,17399,17400,17657,17146,17403,17404,17405,17406,21504,21521,21539,21554,21504,21589,21606,21623,21508,21657,21930,21435,21509,21725,25838,17663,21504,21521,21523,21522,21524,21525,21542,21511,21576,21529,21786,21275,21596,21533,25630,17439,21505,21538,21539,21540,21541,21542,21559,21528,21577,21546,21803,21292,21597,21550,25647,17440,21519,21552,21553,21554,21555,21556,21573,21542,21575,21560,21817,21306,21595,21564,25661,17470,21504,21569,21571,21570,21572,21573,21574,21575,21576,21577,21834,21323,21596,21581,25678,17487,21504,21585,21587,21586,21588,21589,21606,21575,21576,21593,21850,21339,21596,21597,25694,17503,21504,21601,21619,21618,21604,21621,21622,21623,21576,21609,21882,21371,21596,21629,25726,17535,21504,21617,21603,21602,21620,21605,21606,21607,21576,21625,21866,21355,21596,21613,25710,17519,20608,21569,21571,21570,22660,21573,21574,21575,21640,21577,21834,21323,21900,21581,25678,17487,21504,21649,21651,21650,21652,21653,21670,21639,21576,21657,21914,21403,21596,21661,25758,17567,21760,21921,21923,21922,21924,21925,21942,21911,21832,21929,21930,21931,21852,21933,26030,17839,21248,21425,21427,21426,21428,21429,21446,21415,21320,21433,21434,21435,21340,21437,25534,17343,1216,21585,21587,21586,50372,21589,21590,21591,17608,21593,21850,21339,21708,21597,25694,17503,21504,21713,21715,21714,21716,21717,21734,21703,21576,21721,21978,21467,21596,21725,25822,17631,25600,25825,25827,25826,25828,25829,25846,25815,25672,25833,26090,25579,25692,25837,25838,25839,17408,17649,17651,17650,17652,17653,17414,17639,17480,17657,17914,17403,17500,17661,17662,17663,21760,21761,21763,21762,21760,21765,21782,22007,21765,21769,22026,21515,21765,21773,25870,17679,21776,21777,21779,21778,21780,21781,21798,21767,21784,21785,22042,21531,21788,21789,25886,17695,21793,21794,21795,21796,21797,21798,21815,21784,21801,21802,22059,21548,21805,21806,25903,17696,21823,21808,21809,21810,21811,21812,21829,21798,21815,21816,22073,21562,21819,21820,25917,17726,21760,21825,21827,21826,21828,21829,21846,21815,21848,21833,22090,21579,21852,21837,25934,17743,21840,21841,21843,21842,21844,21845,21862,21831,21848,21849,22106,21595,21852,21853,25950,17759,21872,21873,21875,21874,21876,21877,21878,21879,21880,21881,22138,21627,21884,21885,25982,17791,21856,21857,21859,21858,21860,21861,21862,21863,21864,21865,22122,21611,21868,21869,25966,17775,20608,21889,21891,21890,22660,21893,21910,21879,21896,21897,22154,21643,21900,21901,25998,17807,21904,21905,21907,21906,21908,21909,21926,21895,21912,21913,22170,21659,21916,21917,26014,17823,22176,22177,22179,22178,22180,22181,22198,22167,22184,22185,22186,22187,22188,22189,26286,18095,21680,21681,21683,21682,21684,21685,21702,21671,21688,21689,21690,21691,21692,21693,25790,17599,1472,21953,21955,21954,50628,21957,21974,21943,21960,21961,22218,21707,21964,21965,26062,17871,21968,21969,21971,21970,21972,21973,21990,21959,21976,21977,22234,21723,21980,21981,26078,17887,26080,26081,26083,26082,26084,26085,26102,26071,26088,26089,26346,25835,26092,26093,26094,26095,17904,17905,17907,17906,17908,17909,17670,17895,17912,17913,18170,17659,17916,17917,17918,17919,22032,22033,22035,22034,22032,22037,22038,22039,22038,22041,22298,21787,22037,22045,26142,17951,22048,22049,22051,22050,22052,22053,22054,22055,22056,22057,22314,21803,22060,22061,26158,17967,22065,22066,22067,22068,22069,22070,22071,22072,22073,22074,22331,21820,22077,22078,26175,17968,22095,22080,22081,22082,22083,22084,22085,22086,22087,22088,22345,21834,22091,22092,26189,17998,22096,22097,22099,22098,22100,22101,22102,22103,22104,22105,22362,21851,22108,22109,26206,18015,22112,22113,22115,22114,22116,22117,22118,22119,22120,22121,22378,21867,22124,22125,26222,18031,22128,22129,22131,22130,22132,22133,22134,22135,22136,22137,22394,21883,22140,22141,26238,18047,22144,22145,22147,22146,22148,22149,22150,22151,22152,22153,22410,21899,22156,22157,26254,18063,20624,22161,22163,22162,22676,22165,22166,22167,22168,22169,22426,21915,21916,22173,26270,18079,22176,22177,22179,22178,22180,22181,22182,22183,22184,22185,22442,21931,22188,22189,26286,18095,22448,22449,22451,22450,22452,22453,22454,22455,22456,22457,22458,22459,22460,22461,26558,18367,21952,21953,21955,21954,21956,21957,21958,21959,21960,21961,21962,21963,21964,21965,26062,17871,1744,22225,22227,22226,50900,22229,22230,22231,26328,22233,22490,21979,22236,22237,26334,18143,22240,22241,22243,22242,22244,22245,22246,22247,22248,22249,22506,21995,22252,22253,26350,18159,26352,26353,26355,26354,26356,26357,26358,26359,26360,26361,26618,26107,26364,26365,26366,26367,17920,17921,17923,17922,17924,17925,17926,17927,17928,17929,18186,17675,17932,17933,17934,17935,22512,22513,22515,22514,22512,22517,22518,22519,22519,22521,22778,22267,22517,22525,26622,18431,22272,22273,22275,22274,22276,22277,22278,22279,22280,22281,22538,22027,22284,22285,26382,18191,22289,22290,22291,22292,22293,22294,22295,22296,22297,22298,22555,22044,22301,22302,26399,18192,22319,22304,22305,22306,22307,22308,22309,22310,22311,22312,22569,22058,22315,22316,26413,18222,22320,22321,22323,22322,22324,22325,22326,22327,22328,22329,22586,22075,22332,22333,26430,18239,22336,22337,22339,22338,22340,22341,22342,22343,22344,22345,22602,22091,22348,22349,26446,18255,22352,22353,22355,22354,22356,22357,22358,22359,22360,22361,22618,22107,22364,22365,26462,18271,22368,22369,22371,22370,22372,22373,22374,22375,22376,22377,22634,22123,22380,22381,26478,18287,20592,22385,22387,22386,22644,22389,22390,22391,22392,22393,22650,22139,21884,22397,26494,18303,22400,22401,22403,22402,22404,22405,22406,22407,22408,22409,22666,22155,22412,22413,26510,18319,22672,22673,22675,22674,22676,22677,22678,22679,22680,22681,22682,22683,22684,22685,26782,18591,22176,22177,22179,22178,22180,22181,22182,22183,22184,22185,22186,22187,22188,22189,26286,18095,1968,22449,22451,22450,51124,22453,22454,22455,30648,22457,22714,22203,22460,22461,26558,18367,22464,22465,22467,22466,22468,22469,22470,22471,22472,22473,22730,22219,22476,22477,26574,18383,26576,26577,26579,26578,26580,26581,26582,26583,26584,26585,26842,26331,26588,26589,26590,26591,18400,18401,18403,18402,18404,18405,18406,18407,18408,18409,18666,18155,18412,18413,18414,18415,22528,20737,20995,21250,22528,21765,22038,22519,22536,22793,23050,23307,22533,23821,28174,20239,20496,22545,22547,22546,20756,22549,22566,22535,22552,22553,22810,22299,21788,22557,26654,18463,20513,22562,22563,22564,21029,22566,22583,22552,22569,22570,22827,22316,21805,22574,26671,18464,20543,22576,22577,22578,21299,22580,22597,22566,22583,22584,22841,22330,21819,22588,26685,18494,22528,21569,21571,21570,22596,21573,21590,21559,22664,21577,21578,21579,22620,21581,25678,17487,20560,22609,22611,22610,21844,22613,22630,22599,22616,22617,22874,22363,21852,22621,26718,18527,20592,22641,22643,22642,22132,22645,22646,22647,22648,22649,22906,22395,21884,22653,26750,18559,20576,22625,22627,22626,22372,22629,22630,22631,22632,22633,22890,22379,21868,22637,26734,18543,20608,22657,22659,22658,22660,22661,22678,22647,22664,22665,22666,22667,21900,22669,26766,18575,20624,22673,22675,22674,22932,22677,22694,22663,22680,22681,22938,22427,21916,22685,26782,18591,20640,22689,22947,22946,23204,22949,22966,22935,22696,22697,22954,22955,21932,22957,27054,18863,20656,22705,22451,22450,23476,22453,22470,22439,22712,22713,22458,22459,21948,22461,26558,18367,2240,21953,21955,21954,51396,21957,21974,21943,35016,21961,21962,21963,22732,21965,26062,17871,20688,22737,22739,22738,24020,22741,22758,22727,22744,22745,23002,22491,21980,22749,26846,18655,24800,26849,26851,26850,28388,26853,26870,26839,26856,26857,27114,26603,26092,26861,26862,26863,16624,18673,18675,18674,20468,18677,18438,18663,18680,18681,18938,18427,17916,18685,18686,18687,22784,22785,22787,22786,22784,22789,22806,23031,22793,22793,23050,22539,22789,22797,26894,18703,22800,22801,22803,22802,22804,22805,22822,22791,22808,22809,23066,22555,22812,22813,26910,18719,22817,22818,22819,22820,22821,22822,22839,22808,22825,22826,23083,22572,22829,22830,26927,18720,22847,22832,22833,22834,22835,22836,22853,22822,22839,22840,23097,22586,22843,22844,26941,18750,22784,22849,22851,22850,22852,22853,22870,22839,22936,22857,23114,22603,22876,22861,26958,18767,22864,22865,22867,22866,22868,22869,22886,22855,22872,22873,23130,22619,22876,22877,26974,18783,22896,22897,22899,22898,22900,22901,22902,22903,22904,22905,23162,22651,22908,22909,27006,18815,22880,22881,22883,22882,22884,22885,22886,22887,22888,22889,23146,22635,22892,22893,26990,18799,20608,22913,22915,22914,22660,22917,22934,22903,22920,22921,23178,22667,21900,22925,27022,18831,22928,22929,22931,22930,22932,22933,22950,22919,22936,22937,23194,22683,22940,22941,27038,18847,23200,23201,23203,23202,23204,23205,23222,23191,23208,23209,23210,23211,23212,23213,27310,19119,22704,22705,22707,22706,22708,22709,22726,22695,22712,22713,22714,22715,22716,22717,26814,18623,2496,22977,22979,22978,51652,22981,22998,22967,39368,22985,23242,22731,22988,22989,27086,18895,22992,22993,22995,22994,22996,22997,23014,22983,23000,23001,23258,22747,23004,23005,27102,18911,27104,27105,27107,27106,27108,27109,27126,27095,27112,27113,27370,26859,27116,27117,27118,27119,18928,18929,18931,18930,18932,18933,18694,18919,18936,18937,19194,18683,18940,18941,18942,18943,23296,23297,23299,23298,23296,23301,23318,23543,23306,23305,23306,23307,23301,23309,27406,19215,23312,23313,23315,23314,23316,23317,23334,23303,23320,23321,23322,23323,23324,23325,27422,19231,23329,23330,23331,23332,23333,23334,23351,23320,23337,23338,23339,23340,23341,23342,27439,19232,23359,23344,23345,23346,23347,23348,23365,23334,23351,23352,23353,23354,23355,23356,27453,19262,23296,23361,23363,23362,23364,23365,23382,23351,23464,23369,23370,23371,23388,23373,27470,19279,23376,23377,23379,23378,23380,23381,23398,23367,23384,23385,23386,23387,23388,23389,27486,19295,23408,23409,23411,23410,23412,23413,23414,23415,23416,23417,23418,23419,23420,23421,27518,19327,23392,23393,23395,23394,23396,23397,23398,23399,23400,23401,23402,23403,23404,23405,27502,19311,23424,23425,23427,23426,23428,23429,23446,23415,23432,23433,23434,23435,23436,23437,27534,19343,23440,23441,23443,23442,23444,23445,23462,23431,23448,23449,23450,23451,23452,23453,27550,19359,23456,23457,23459,23458,23460,23461,23478,23447,23464,23465,23466,23467,23468,23469,27566,19375,23472,23473,23475,23474,23476,23477,23494,23463,23480,23481,23482,23483,23484,23485,27582,19391,3008,23489,23491,23490,52164,23493,23510,23479,43976,23497,23498,23499,23500,23501,27598,19407,23504,23505,23507,23506,23508,23509,23526,23495,23512,23513,23514,23515,23516,23517,27614,19423,27616,27617,27619,27618,27620,27621,27638,27607,27624,27625,27626,27627,27628,27629,27630,27631,19440,19441,19443,19442,19444,19445,19206,19431,19448,19449,19450,19451,19452,19453,19454,19455,23040,23041,23043,23042,23040,23045,23062,23287,23051,23049,23050,23051,23045,23053,27150,18959,23056,23057,23059,23058,23060,23061,23078,23047,23064,23065,23066,23067,23068,23069,27166,18975,23073,23074,23075,23076,23077,23078,23095,23064,23081,23082,23083,23084,23085,23086,27183,18976,23103,23088,23089,23090,23091,23092,23109,23078,23095,23096,23097,23098,23099,23100,27197,19006,23040,23105,23107,23106,23108,23109,23126,23095,23224,23113,23114,23115,23132,23117,27214,19023,23120,23121,23123,23122,23124,23125,23142,23111,23128,23129,23130,23131,23132,23133,27230,19039,23152,23153,23155,23154,23156,23157,23158,23159,23160,23161,23162,23163,23164,23165,27262,19071,23136,23137,23139,23138,23140,23141,23142,23143,23144,23145,23146,23147,23148,23149,27246,19055,23168,23169,23171,23170,23172,23173,23190,23159,23176,23177,23178,23179,23180,23181,27278,19087,23184,23185,23187,23186,23188,23189,23206,23175,23192,23193,23194,23195,23196,23197,27294,19103,23200,23201,23203,23202,23204,23205,23222,23191,23208,23209,23210,23211,23212,23213,27310,19119,23216,23217,23219,23218,23220,23221,23238,23207,23224,23225,23226,23227,23228,23229,27326,19135,2752,23233,23235,23234,51908,23237,23254,23223,47816,23241,23242,23243,23244,23245,27342,19151,23248,23249,23251,23250,23252,23253,23270,23239,23256,23257,23258,23259,23260,23261,27358,19167,27360,27361,27363,27362,27364,27365,27382,27351,27368,27369,27370,27371,27372,27373,27374,27375,19184,19185,19187,19186,19188,19189,18950,19175,19192,19193,19194,19195,19196,19197,19198,19199,23552,7169,11267,15362,23552,23557,27670,31991,23564,39945,44298,47883,23557,56333,60430,64527,3088,23569,23571,23570,7188,23573,23590,23559,52248,23577,23834,23323,23580,23581,27678,19487,3105,23586,23587,23588,11301,23590,23607,23576,52265,23594,23851,23340,23597,23598,27695,19488,3135,23600,23601,23602,15411,23604,23621,23590,52279,23608,23865,23354,23611,23612,27709,19518,23552,19521,19523,19522,23620,19525,19542,19511,23752,19529,19786,19275,23644,19533,19534,19535,3152,23633,23635,23634,23636,23637,23654,23623,52312,23641,23898,23387,23644,23645,27742,19551,3184,23665,23667,23666,27764,23669,23670,23671,52344,23673,23930,23419,23676,23677,27774,19583,3168,23649,23651,23650,31844,23653,23654,23655,52328,23657,23914,23403,23660,23661,27758,19567,20608,52353,52355,52354,22660,52357,52374,52343,23688,52361,52618,52107,21900,52365,52366,52367,3216,23697,23699,23698,40084,23701,23718,23687,52376,23705,23962,23451,23708,23709,27806,19615,3488,23969,23971,23970,44452,23973,23990,23959,52648,23977,23978,23979,23980,23981,28078,19887,2992,23473,23475,23474,48052,23477,23494,23463,52152,23481,23482,23483,23484,23485,27582,19391,3264,23745,23747,23746,52420,23749,23766,23735,52424,23753,24010,23499,23756,23757,23758,23759,3280,23761,23763,23762,56532,23765,23782,23751,52440,23769,24026,23515,23772,23773,27870,19679,3296,23777,27875,27874,60644,27877,27894,27863,52456,23785,28138,27627,23788,27885,27886,27887,3312,23793,19699,19698,64756,19701,19462,19687,52472,23801,19962,19451,23804,19709,19710,19711,23808,23809,23811,23810,23808,23813,23830,24055,23821,23817,24074,23563,23813,23821,27918,19727,23824,23825,23827,23826,23828,23829,23846,23815,23832,23833,24090,23579,23836,23837,27934,19743,23841,23842,23843,23844,23845,23846,23863,23832,23849,23850,24107,23596,23853,23854,27951,19744,23871,23856,23857,23858,23859,23860,23877,23846,23863,23864,24121,23610,23867,23868,27965,19774,23808,23873,23875,23874,23876,23877,23894,23863,24024,23881,24138,23627,23900,23885,27982,19791,23888,23889,23891,23890,23892,23893,23910,23879,23896,23897,24154,23643,23900,23901,27998,19807,23920,23921,23923,23922,23924,23925,23926,23927,23928,23929,24186,23675,23932,23933,28030,19839,23904,23905,23907,23906,23908,23909,23910,23911,23912,23913,24170,23659,23916,23917,28014,19823,20608,23937,23939,23938,22660,23941,23958,23927,23944,23945,24202,23691,21900,23949,28046,19855,23952,23953,23955,23954,23956,23957,23974,23943,23960,23961,24218,23707,23964,23965,28062,19871,24224,24225,24227,24226,24228,24229,24246,24215,24232,24233,24234,24235,24236,24237,28334,20143,23728,23729,23731,23730,23732,23733,23750,23719,23736,23737,23738,23739,23740,23741,27838,19647,3520,24001,24003,24002,52676,24005,24022,23991,56776,24009,24266,23755,24012,24013,28110,19919,24016,24017,24019,24018,24020,24021,24038,24007,24024,24025,24282,23771,24028,24029,28126,19935,28128,28129,28131,28130,28132,28133,28150,28119,28136,28137,28394,27883,28140,28141,28142,28143,19952,19953,19955,19954,19956,19957,19718,19943,19960,19961,20218,19707,19964,19965,19966,19967,28160,28161,28163,28162,28160,28165,28182,28407,28174,28169,28426,27915,28165,28173,28174,28175,28176,28177,28179,28178,28180,28181,28198,28167,28184,28185,28442,27931,28188,28189,28190,28191,28193,28194,28195,28196,28197,28198,28215,28184,28201,28202,28459,27948,28205,28206,28207,28192,28223,28208,28209,28210,28211,28212,28229,28198,28215,28216,28473,27962,28219,28220,28221,28222,28160,28225,28227,28226,28228,28229,28246,28215,28392,28233,28490,27979,28252,28237,28238,28239,28240,28241,28243,28242,28244,28245,28262,28231,28248,28249,28506,27995,28252,28253,28254,28255,28272,28273,28275,28274,28276,28277,28278,28279,28280,28281,28538,28027,28284,28285,28286,28287,28256,28257,28259,28258,28260,28261,28262,28263,28264,28265,28522,28011,28268,28269,28270,28271,24704,28289,28291,28290,26756,28293,28310,28279,28296,28297,28554,28043,25996,28301,28302,28303,28304,28305,28307,28306,28308,28309,28326,28295,28312,28313,28570,28059,28316,28317,28318,28319,28576,28577,28579,28578,28580,28581,28598,28567,28584,28585,28586,28587,28588,28589,28590,28591,28080,28081,28083,28082,28084,28085,28102,28071,28088,28089,28090,28091,28092,28093,28094,28095,28352,28353,28355,28354,28356,28357,28374,28343,28360,28361,28618,28107,28364,28365,28366,28367,28368,28369,28371,28370,28372,28373,28390,28359,28376,28377,28634,28123,28380,28381,28382,28383,28384,28385,28387,28386,28388,28389,28406,28375,28392,28393,28650,28139,28396,28397,28398,28399,28400,28401,28403,28402,28404,28405,28166,28391,28408,28409,28666,28155,28412,28413,28414,28415,20224,20225,20227,20226,20224,20229,20246,20471,20239,20233,16394,19979,20229,20237,20238,20239,20240,20241,20243,20242,20244,20245,20262,20231,20248,20249,16410,19995,20252,20253,20254,20255,20257,20258,20259,20260,20261,20262,20279,20248,20265,20266,16427,20012,20269,20270,20271,20256,20287,20272,20273,20274,20275,20276,20293,20262,20279,20280,16441,20026,20283,20284,20285,20286,20224,20289,20291,20290,20292,20293,20310,20279,20472,20297,16458,20043,20316,20301,20302,20303,20304,20305,20307,20306,20308,20309,20326,20295,20312,20313,16474,20059,20316,20317,20318,20319,20336,20337,20339,20338,20340,20341,20342,20343,20344,20345,16506,20091,20348,20349,20350,20351,20320,20321,20323,20322,20324,20325,20326,20327,20328,20329,16490,20075,20332,20333,20334,20335,16512,20353,20355,20354,18564,20357,20374,20343,20360,20361,16522,20107,17804,20365,20366,20367,20368,20369,20371,20370,20372,20373,20390,20359,20376,20377,16538,20123,20380,20381,20382,20383,16544,16545,16547,16546,16548,16549,16566,16535,16552,16553,16554,16555,16556,16557,16558,16559,20144,20145,20147,20146,20148,20149,20166,20135,20152,20153,20154,20155,20156,20157,20158,20159,20416,20417,20419,20418,20420,20421,20438,20407,20424,20425,16586,20171,20428,20429,20430,20431,20432,20433,20435,20434,20436,20437,20454,20423,20440,20441,16602,20187,20444,20445,20446,20447,20448,20449,20451,20450,20452,20453,20470,20439,20456,20457,16618,20203,20460,20461,20462,20463,20464,20465,20467,20466,20468,20469,20230,20455,20472,20473,16634,20219,20476,20477,20478,20479,24592,24593,24594,24595,24592,24597,24598,24599,24592,24601,24858,28443,24598,24605,28702,20511,24608,24609,24611,24610,24609,24613,24614,24615,24608,24617,24874,28459,24614,24621,28718,20527,24624,24625,24627,24628,24626,24630,24631,24632,24624,24633,24891,28476,24630,24638,28735,20528,24640,24641,24641,24642,24643,24644,24645,24646,24640,24649,24905,28490,24646,24652,28749,20558,24656,24660,24660,24660,24660,24660,24660,24660,24664,24660,24916,28500,24668,24660,28756,20564,24672,24673,24675,24674,24677,24677,24678,24679,24672,24681,24938,28523,24678,24685,28782,20591,24688,24689,24691,24690,24694,24693,24694,24695,24688,24697,24954,28539,24694,24701,28798,20607,24704,24705,24707,24706,24711,24709,24710,24711,24704,24713,24970,28555,24710,24717,28814,20623,24720,24720,24720,24720,26772,24720,24720,24720,24728,24720,24976,28560,26268,24720,28816,20624,24736,24737,24739,24738,24745,24741,24742,24743,24736,24745,25002,28587,24742,24749,28846,20655,25008,25009,25011,25010,25018,25013,25014,25015,25008,25017,25018,25019,25014,25021,29118,20927,28608,28609,28611,28610,28619,28613,28614,28615,28608,28617,28618,28619,28614,28621,32718,24527,208,24790,24790,24790,49364,24790,24790,24790,216,24790,25046,28630,24796,24790,28886,20694,24800,24801,24803,24802,24813,24805,24806,24807,24800,24809,25066,28651,24806,24813,28910,20719,28912,28913,28915,28914,28926,28917,28918,28919,28912,28921,29178,32763,28918,28925,28926,28927,20480,20481,20483,20482,20495,20485,20486,20487,20480,20489,20746,24331,20486,20493,20494,20495,24848,24849,24851,24850,24848,24853,24854,24855,24849,24857,25114,24603,24854,24861,28958,20767,24864,24865,24867,24866,24868,24869,24870,24871,24872,24873,25130,24619,24876,24877,28974,20783,24881,24882,24883,24884,24885,24886,24887,24888,24889,24890,25147,24636,24893,24894,28991,20784,24911,24896,24897,24898,24899,24900,24901,24902,24903,24904,25161,24650,24907,24908,29005,20814,24912,24913,24915,24914,24916,24917,24918,24919,24920,24921,25178,24667,24924,24925,29022,20831,24928,24929,24931,24930,24932,24933,24934,24935,24936,24937,25194,24683,24940,24941,29038,20847,24944,24945,24947,24946,24948,24949,24950,24951,24952,24953,25210,24699,24956,24957,29054,20863,24960,24961,24963,24962,24964,24965,24966,24967,24968,24969,25226,24715,24972,24973,29070,20879,24720,24977,24979,24978,26772,24981,24982,24983,24984,24985,25242,24731,26268,24989,29086,20895,24992,24993,24995,24994,24996,24997,24998,24999,25000,25001,25258,24747,25004,25005,29102,20911,25264,25265,25267,25266,25268,25269,25270,25271,25272,25273,25274,25275,25276,25277,29374,21183,24768,24769,24771,24770,24772,24773,24774,24775,24776,24777,24778,24779,24780,24781,28878,20687,464,25041,25043,25042,49620,25045,25046,25047,4568,25049,25306,24795,25052,25053,29150,20959,25056,25057,25059,25058,25060,25061,25062,25063,25064,25065,25322,24811,25068,25069,29166,20975,29168,29169,29171,29170,29172,29173,29174,29175,29176,29177,29434,28923,29180,29181,29182,29183,20736,20737,20739,20738,20740,20741,20742,20743,20744,20745,21002,20491,20748,20749,20750,20751,25105,25106,25107,25108,25109,25110,25111,25112,25113,25114,25371,24860,25117,25118,29215,21008,25121,25122,25123,25124,25125,25126,25127,25128,25129,25130,25387,24876,25133,25134,29231,21024,25137,25138,25139,25140,25141,25142,25143,25144,25145,25146,25403,24892,25149,25150,29247,21040,25153,25154,25155,25156,25157,25158,25159,25160,25161,25162,25419,24908,25165,25166,29263,21056,25169,25170,25171,25172,25173,25174,25175,25176,25177,25178,25435,24924,25181,25182,29279,21072,25185,25186,25187,25188,25189,25190,25191,25192,25193,25194,25451,24940,25197,25198,29295,21088,25201,25202,25203,25204,25205,25206,25207,25208,25209,25210,25467,24956,25213,25214,29311,21104,25217,25218,25219,25220,25221,25222,25223,25224,25225,25226,25483,24972,25229,25230,29327,21120,24721,25234,25235,25236,26773,25238,25239,25240,25241,25242,25499,24988,26269,25246,29343,21136,25249,25250,25251,25252,25253,25254,25255,25256,25257,25258,25515,25004,25261,25262,29359,21152,25521,25522,25523,25524,25525,25526,25527,25528,25529,25530,25531,25532,25533,25534,29631,21424,25025,25026,25027,25028,25029,25030,25031,25032,25033,25034,25035,25036,25037,25038,29135,20928,721,25298,25299,25300,49877,25302,25303,25304,8921,25306,25563,25052,25309,25310,29407,21200,25313,25314,25315,25316,25317,25318,25319,25320,25321,25322,25579,25068,25325,25326,29423,21216,29425,29426,29427,29428,29429,29430,29431,29432,29433,29434,29691,29180,29437,29438,29439,29424,20993,20994,20995,20996,20997,20998,20999,21000,21001,21002,21259,20748,21005,21006,21007,20992,25375,25360,25361,25362,25363,25364,25365,25366,25367,25368,25625,25114,25371,25372,29469,21278,25391,25376,25377,25378,25379,25380,25381,25382,25383,25384,25641,25130,25387,25388,29485,21294,25407,25392,25393,25394,25395,25396,25397,25398,25399,25400,25657,25146,25403,25404,29501,21310,25423,25408,25409,25410,25411,25412,25413,25414,25415,25416,25673,25162,25419,25420,29517,21326,25439,25424,25425,25426,25427,25428,25429,25430,25431,25432,25689,25178,25435,25436,29533,21342,25455,25440,25441,25442,25443,25444,25445,25446,25447,25448,25705,25194,25451,25452,29549,21358,25471,25456,25457,25458,25459,25460,25461,25462,25463,25464,25721,25210,25467,25468,29565,21374,25487,25472,25473,25474,25475,25476,25477,25478,25479,25480,25737,25226,25483,25484,29581,21390,24735,25488,25489,25490,26771,25492,25493,25494,25495,25496,25753,25242,26267,25500,29597,21406,25519,25504,25505,25506,25507,25508,25509,25510,25511,25512,25769,25258,25515,25516,29613,21422,25791,25776,25777,25778,25779,25780,25781,25782,25783,25784,25785,25786,25787,25788,29885,21694,25295,25280,25281,25282,25283,25284,25285,25286,25287,25288,25289,25290,25291,25292,29389,21198,991,25552,25553,25554,50131,25556,25557,25558,13271,25560,25817,25306,25563,25564,29661,21470,25583,25568,25569,25570,25571,25572,25573,25574,25575,25576,25833,25322,25579,25580,29677,21486,29695,29680,29681,29682,29683,29684,29685,29686,29687,29688,29945,29434,29691,29692,29693,29694,21263,21248,21249,21250,21251,21252,21253,21254,21255,21256,21513,21002,21259,21260,21261,21262,25616,25617,25619,25618,25616,25621,25622,25623,25620,25625,25882,25371,25622,25629,29726,21535,25632,25633,25635,25634,25636,25637,25638,25639,25640,25641,25898,25387,25644,25645,29742,21551,25649,25650,25651,25652,25653,25654,25655,25656,25657,25658,25915,25404,25661,25662,29759,21552,25679,25664,25665,25666,25667,25668,25669,25670,25671,25672,25929,25418,25675,25676,29773,21582,25680,25681,25683,25682,25684,25685,25686,25687,25688,25689,25946,25435,25692,25693,29790,21599,25696,25697,25699,25698,25700,25701,25702,25703,25704,25705,25962,25451,25708,25709,29806,21615,25712,25713,25715,25714,25716,25717,25718,25719,25720,25721,25978,25467,25724,25725,29822,21631,25728,25729,25731,25730,25732,25733,25734,25735,25736,25737,25994,25483,25740,25741,29838,21647,24720,25745,25747,25746,26772,25749,25750,25751,25752,25753,26010,25499,26268,25757,29854,21663,25760,25761,25763,25762,25764,25765,25766,25767,25768,25769,26026,25515,25772,25773,29870,21679,26032,26033,26035,26034,26036,26037,26038,26039,26040,26041,26042,26043,26044,26045,30142,21951,25536,25537,25539,25538,25540,25541,25542,25543,25544,25545,25546,25547,25548,25549,29646,21455,1232,25809,25811,25810,50388,25813,25814,25815,17624,25817,26074,25563,25820,25821,29918,21727,25824,25825,25827,25826,25828,25829,25830,25831,25832,25833,26090,25579,25836,25837,29934,21743,29936,29937,29939,29938,29940,29941,29942,29943,29944,29945,30202,29691,29948,29949,29950,29951,21504,21505,21507,21506,21508,21509,21510,21511,21512,21513,21770,21259,21516,21517,21518,21519,25872,25873,25875,25874,25872,25877,25878,25879,25877,25881,26138,25627,25878,25885,29982,21791,25888,25889,25891,25890,25892,25893,25894,25895,25896,25897,26154,25643,25900,25901,29998,21807,25905,25906,25907,25908,25909,25910,25911,25912,25913,25914,26171,25660,25917,25918,30015,21808,25935,25920,25921,25922,25923,25924,25925,25926,25927,25928,26185,25674,25931,25932,30029,21838,25936,25937,25939,25938,25940,25941,25942,25943,25944,25945,26202,25691,25948,25949,30046,21855,25952,25953,25955,25954,25956,25957,25958,25959,25960,25961,26218,25707,25964,25965,30062,21871,25968,25969,25971,25970,25972,25973,25974,25975,25976,25977,26234,25723,25980,25981,30078,21887,25984,25985,25987,25986,25988,25989,25990,25991,25992,25993,26250,25739,25996,25997,30094,21903,24720,26001,26003,26002,26772,26005,26006,26007,26008,26009,26266,25755,26268,26013,30110,21919,26016,26017,26019,26018,26020,26021,26022,26023,26024,26025,26282,25771,26028,26029,30126,21935,26288,26289,26291,26290,26292,26293,26294,26295,26296,26297,26298,26299,26300,26301,30398,22207,25792,25793,25795,25794,25796,25797,25798,25799,25800,25801,25802,25803,25804,25805,29902,21711,1488,26065,26067,26066,50644,26069,26070,26071,21976,26073,26330,25819,26076,26077,30174,21983,26080,26081,26083,26082,26084,26085,26086,26087,26088,26089,26346,25835,26092,26093,30190,21999,30192,30193,30195,30194,30196,30197,30198,30199,30200,30201,30458,29947,30204,30205,30206,30207,21760,21761,21763,21762,21764,21765,21766,21767,21768,21769,22026,21515,21772,21773,21774,21775,26128,26129,26131,26130,26128,26133,26134,26135,26134,26137,26394,25883,26134,26141,30238,22047,26144,26145,26147,26146,26148,26149,26150,26151,26152,26153,26410,25899,26156,26157,30254,22063,26161,26162,26163,26164,26165,26166,26167,26168,26169,26170,26427,25916,26173,26174,30271,22064,26191,26176,26177,26178,26179,26180,26181,26182,26183,26184,26441,25930,26187,26188,30285,22094,26192,26193,26195,26194,26196,26197,26198,26199,26200,26201,26458,25947,26204,26205,30302,22111,26208,26209,26211,26210,26212,26213,26214,26215,26216,26217,26474,25963,26220,26221,30318,22127,26224,26225,26227,26226,26228,26229,26230,26231,26232,26233,26490,25979,26236,26237,30334,22143,26240,26241,26243,26242,26244,26245,26246,26247,26248,26249,26506,25995,26252,26253,30350,22159,24720,26257,26259,26258,26772,26261,26262,26263,26264,26265,26522,26011,26268,26269,30366,22175,26272,26273,26275,26274,26276,26277,26278,26279,26280,26281,26538,26027,26284,26285,30382,22191,26544,26545,26547,26546,26548,26549,26550,26551,26552,26553,26554,26555,26556,26557,30654,22463,26048,26049,26051,26050,26052,26053,26054,26055,26056,26057,26058,26059,26060,26061,30158,21967,1744,26321,26323,26322,50900,26325,26326,26327,26328,26329,26586,26075,26332,26333,30430,22239,26336,26337,26339,26338,26340,26341,26342,26343,26344,26345,26602,26091,26348,26349,30446,22255,30448,30449,30451,30450,30452,30453,30454,30455,30456,30457,30714,30203,30460,30461,30462,30463,22016,22017,22019,22018,22020,22021,22022,22023,22024,22025,22282,21771,22028,22029,22030,22031,26384,26385,26387,26386,26384,26389,26390,26391,26391,26393,26650,26139,26390,26397,30494,22303,26400,26401,26403,26402,26404,26405,26406,26407,26408,26409,26666,26155,26412,26413,30510,22319,26417,26418,26419,26420,26421,26422,26423,26424,26425,26426,26683,26172,26429,26430,30527,22320,26447,26432,26433,26434,26435,26436,26437,26438,26439,26440,26697,26186,26443,26444,30541,22350,26448,26449,26451,26450,26452,26453,26454,26455,26456,26457,26714,26203,26460,26461,30558,22367,26464,26465,26467,26466,26468,26469,26470,26471,26472,26473,26730,26219,26476,26477,30574,22383,26480,26481,26483,26482,26484,26485,26486,26487,26488,26489,26746,26235,26492,26493,30590,22399,26496,26497,26499,26498,26500,26501,26502,26503,26504,26505,26762,26251,26508,26509,30606,22415,24720,26513,26515,26514,26772,26517,26518,26519,26520,26521,26778,26267,26268,26525,30622,22431,26528,26529,26531,26530,26532,26533,26534,26535,26536,26537,26794,26283,26540,26541,30638,22447,26800,26801,26803,26802,26804,26805,26806,26807,26808,26809,26810,26811,26812,26813,30910,22719,26304,26305,26307,26306,26308,26309,26310,26311,26312,26313,26314,26315,26316,26317,30414,22223,2000,26577,26579,26578,51156,26581,26582,26583,30680,26585,26842,26331,26588,26589,30686,22495,26592,26593,26595,26594,26596,26597,26598,26599,26600,26601,26858,26347,26604,26605,30702,22511,30704,30705,30707,30706,30708,30709,30710,30711,30712,30713,30970,30459,30716,30717,30718,30719,22272,22273,22275,22274,22276,22277,22278,22279,22280,22281,22538,22027,22284,22285,22286,22287,26640,24849,25107,25362,26640,25877,26134,26391,26648,26905,27162,27419,26646,27933,32286,24351,24608,26657,26659,26658,24868,26661,26662,26663,26664,26665,26922,26411,26156,26669,30766,22575,24625,26674,26675,26676,25141,26678,26679,26680,26681,26682,26939,26428,26173,26686,30783,22576,24655,26688,26689,26690,25411,26692,26693,26694,26695,26696,26953,26442,26187,26700,30797,22606,26704,25681,25683,25682,26708,25685,25686,25687,26712,25689,25690,25691,26716,25693,29790,21599,24672,26721,26723,26722,25956,26725,26726,26727,26728,26729,26986,26475,26220,26733,30830,22639,24688,26737,26739,26738,26228,26741,26742,26743,26744,26745,27002,26491,26236,26749,30846,22655,24704,26753,26755,26754,26500,26757,26758,26759,26760,26761,27018,26507,26252,26765,30862,22671,24720,26769,26771,26770,26772,26773,26774,26775,26776,26777,26778,26779,26268,26781,30878,22687,24736,26785,26787,26786,27044,26789,26790,26791,26792,26793,27050,26539,26284,26797,30894,22703,24752,26801,27059,27058,27316,27061,27062,27063,26808,26809,27066,27067,26300,27069,31166,22975,24768,26817,26563,26562,27588,26565,26566,26567,26824,26825,26570,26571,26316,26573,30670,22479,2256,26321,26323,26322,51412,26325,26326,26327,35032,26329,26330,26331,26844,26333,30430,22239,24800,26849,26851,26850,28132,26853,26854,26855,26856,26857,27114,26603,26348,26861,30958,22767,28912,30961,30963,30962,32500,30965,30966,30967,30968,30969,31226,30715,30460,30973,30974,30975,20480,22529,22531,22530,24324,22533,22534,22535,22536,22537,22794,22283,22028,22541,22542,22543,26896,26897,26899,26898,26896,26901,26902,26903,26905,26905,27162,26651,26902,26909,31006,22815,26912,26913,26915,26914,26916,26917,26918,26919,26920,26921,27178,26667,26924,26925,31022,22831,26929,26930,26931,26932,26933,26934,26935,26936,26937,26938,27195,26684,26941,26942,31039,22832,26959,26944,26945,26946,26947,26948,26949,26950,26951,26952,27209,26698,26955,26956,31053,22862,26960,26961,26963,26962,26964,26965,26966,26967,26968,26969,27226,26715,26972,26973,31070,22879,26976,26977,26979,26978,26980,26981,26982,26983,26984,26985,27242,26731,26988,26989,31086,22895,26992,26993,26995,26994,26996,26997,26998,26999,27000,27001,27258,26747,27004,27005,31102,22911,27008,27009,27011,27010,27012,27013,27014,27015,27016,27017,27274,26763,27020,27021,31118,22927,24720,27025,27027,27026,26772,27029,27030,27031,27032,27033,27290,26779,26268,27037,31134,22943,27040,27041,27043,27042,27044,27045,27046,27047,27048,27049,27306,26795,27052,27053,31150,22959,27312,27313,27315,27314,27316,27317,27318,27319,27320,27321,27322,27323,27324,27325,31422,23231,26816,26817,26819,26818,26820,26821,26822,26823,26824,26825,26826,26827,26828,26829,30926,22735,2512,27089,27091,27090,51668,27093,27094,27095,39384,27097,27354,26843,27100,27101,31198,23007,27104,27105,27107,27106,27108,27109,27110,27111,27112,27113,27370,26859,27116,27117,31214,23023,31216,31217,31219,31218,31220,31221,31222,31223,31224,31225,31482,30971,31228,31229,31230,31231,22784,22785,22787,22786,22788,22789,22790,22791,22792,22793,23050,22539,22796,22797,22798,22799,27408,27409,27411,27410,27408,27413,27414,27415,27418,27417,27418,27419,27414,27421,31518,23327,27424,27425,27427,27426,27428,27429,27430,27431,27432,27433,27434,27435,27436,27437,31534,23343,27441,27442,27443,27444,27445,27446,27447,27448,27449,27450,27451,27452,27453,27454,31551,23344,27471,27456,27457,27458,27459,27460,27461,27462,27463,27464,27465,27466,27467,27468,31565,23374,27472,27473,27475,27474,27476,27477,27478,27479,27480,27481,27482,27483,27484,27485,31582,23391,27488,27489,27491,27490,27492,27493,27494,27495,27496,27497,27498,27499,27500,27501,31598,23407,27504,27505,27507,27506,27508,27509,27510,27511,27512,27513,27514,27515,27516,27517,31614,23423,27520,27521,27523,27522,27524,27525,27526,27527,27528,27529,27530,27531,27532,27533,31630,23439,27536,27537,27539,27538,27540,27541,27542,27543,27544,27545,27546,27547,27548,27549,31646,23455,27552,27553,27555,27554,27556,27557,27558,27559,27560,27561,27562,27563,27564,27565,31662,23471,27568,27569,27571,27570,27572,27573,27574,27575,27576,27577,27578,27579,27580,27581,31678,23487,27584,27585,27587,27586,27588,27589,27590,27591,27592,27593,27594,27595,27596,27597,31694,23503,3024,27601,27603,27602,52180,27605,27606,27607,43992,27609,27610,27611,27612,27613,31710,23519,27616,27617,27619,27618,27620,27621,27622,27623,27624,27625,27626,27627,27628,27629,31726,23535,31728,31729,31731,31730,31732,31733,31734,31735,31736,31737,31738,31739,31740,31741,31742,31743,23296,23297,23299,23298,23300,23301,23302,23303,23304,23305,23306,23307,23308,23309,23310,23311,27152,27153,27155,27154,27152,27157,27158,27159,27163,27161,27162,27163,27158,27165,31262,23071,27168,27169,27171,27170,27172,27173,27174,27175,27176,27177,27178,27179,27180,27181,31278,23087,27185,27186,27187,27188,27189,27190,27191,27192,27193,27194,27195,27196,27197,27198,31295,23088,27215,27200,27201,27202,27203,27204,27205,27206,27207,27208,27209,27210,27211,27212,31309,23118,27216,27217,27219,27218,27220,27221,27222,27223,27224,27225,27226,27227,27228,27229,31326,23135,27232,27233,27235,27234,27236,27237,27238,27239,27240,27241,27242,27243,27244,27245,31342,23151,27248,27249,27251,27250,27252,27253,27254,27255,27256,27257,27258,27259,27260,27261,31358,23167,27264,27265,27267,27266,27268,27269,27270,27271,27272,27273,27274,27275,27276,27277,31374,23183,27280,27281,27283,27282,27284,27285,27286,27287,27288,27289,27290,27291,27292,27293,31390,23199,27296,27297,27299,27298,27300,27301,27302,27303,27304,27305,27306,27307,27308,27309,31406,23215,27312,27313,27315,27314,27316,27317,27318,27319,27320,27321,27322,27323,27324,27325,31422,23231,27328,27329,27331,27330,27332,27333,27334,27335,27336,27337,27338,27339,27340,27341,31438,23247,2768,27345,27347,27346,51924,27349,27350,27351,47832,27353,27354,27355,27356,27357,31454,23263,27360,27361,27363,27362,27364,27365,27366,27367,27368,27369,27370,27371,27372,27373,31470,23279,31472,31473,31475,31474,31476,31477,31478,31479,31480,31481,31482,31483,31484,31485,31486,31487,23040,23041,23043,23042,23044,23045,23046,23047,23048,23049,23050,23051,23052,23053,23054,23055,27664,7185,11283,15378,27664,23573,27670,31767,27676,39961,44314,47899,27670,56349,60446,64543,3104,27681,27683,27682,7204,27685,27686,27687,52264,27689,27946,27435,27692,27693,31790,23599,3121,27698,27699,27700,11317,27702,27703,27704,52281,27706,27963,27452,27709,27710,31807,23600,3151,27712,27713,27714,15427,27716,27717,27718,52295,27720,27977,27466,27723,27724,31821,23630,27728,19537,19539,19538,27732,19541,19542,19543,27736,19545,19802,19291,27740,19549,19550,19551,3168,27745,27747,27746,23652,27749,27750,27751,52328,27753,28010,27499,27756,27757,31854,23663,3184,27761,27763,27762,27764,27765,27766,27767,52344,27769,28026,27515,27772,27773,31870,23679,3200,27777,27779,27778,31876,27781,27782,27783,52360,27785,28042,27531,27788,27789,31886,23695,24720,52369,52371,52370,26772,52373,52374,52375,27800,52377,52634,52123,26268,52381,52382,52383,3232,27809,27811,27810,40100,27813,27814,27815,52392,27817,28074,27563,27820,27821,31918,23727,3504,28081,28083,28082,44468,28085,28086,28087,52664,28089,28090,28091,28092,28093,32190,23999,3008,27585,27587,27586,48068,27589,27590,27591,52168,27593,27594,27595,27596,27597,31694,23503,3280,27857,27859,27858,52436,27861,27862,27863,52440,27865,28122,27611,27868,27869,27870,27871,3296,27873,27875,27874,56548,27877,27878,27879,52456,27881,28138,27627,27884,27885,31982,23791,3312,27889,31987,31986,60660,31989,31990,31991,52472,27897,32250,31739,27900,31997,31998,31999,3072,27649,23555,23554,64516,23557,23558,23559,52232,27657,23818,23307,27660,23565,23566,23567,27920,27921,27923,27922,27920,27925,27926,27927,27933,27929,28186,27675,27926,27933,32030,23839,27936,27937,27939,27938,27940,27941,27942,27943,27944,27945,28202,27691,27948,27949,32046,23855,27953,27954,27955,27956,27957,27958,27959,27960,27961,27962,28219,27708,27965,27966,32063,23856,27983,27968,27969,27970,27971,27972,27973,27974,27975,27976,28233,27722,27979,27980,32077,23886,27984,27985,27987,27986,27988,27989,27990,27991,27992,27993,28250,27739,27996,27997,32094,23903,28000,28001,28003,28002,28004,28005,28006,28007,28008,28009,28266,27755,28012,28013,32110,23919,28016,28017,28019,28018,28020,28021,28022,28023,28024,28025,28282,27771,28028,28029,32126,23935,28032,28033,28035,28034,28036,28037,28038,28039,28040,28041,28298,27787,28044,28045,32142,23951,24720,28049,28051,28050,26772,28053,28054,28055,28056,28057,28314,27803,26268,28061,32158,23967,28064,28065,28067,28066,28068,28069,28070,28071,28072,28073,28330,27819,28076,28077,32174,23983,28336,28337,28339,28338,28340,28341,28342,28343,28344,28345,28346,28347,28348,28349,32446,24255,27840,27841,27843,27842,27844,27845,27846,27847,27848,27849,27850,27851,27852,27853,31950,23759,3536,28113,28115,28114,52692,28117,28118,28119,56792,28121,28378,27867,28124,28125,32222,24031,28128,28129,28131,28130,28132,28133,28134,28135,28136,28137,28394,27883,28140,28141,32238,24047,32240,32241,32243,32242,32244,32245,32246,32247,32248,32249,32506,31995,32252,32253,32254,32255,23808,23809,23811,23810,23812,23813,23814,23815,23816,23817,24074,23563,23820,23821,23822,23823,32272,32273,32275,32274,32272,32277,32278,32279,32286,32281,32538,32027,32278,32285,32286,32287,32288,32289,32291,32290,32292,32293,32294,32295,32296,32297,32554,32043,32300,32301,32302,32303,32305,32306,32307,32308,32309,32310,32311,32312,32313,32314,32571,32060,32317,32318,32319,32304,32335,32320,32321,32322,32323,32324,32325,32326,32327,32328,32585,32074,32331,32332,32333,32334,32336,32337,32339,32338,32340,32341,32342,32343,32344,32345,32602,32091,32348,32349,32350,32351,32352,32353,32355,32354,32356,32357,32358,32359,32360,32361,32618,32107,32364,32365,32366,32367,32368,32369,32371,32370,32372,32373,32374,32375,32376,32377,32634,32123,32380,32381,32382,32383,32384,32385,32387,32386,32388,32389,32390,32391,32392,32393,32650,32139,32396,32397,32398,32399,28816,32401,32403,32402,30868,32405,32406,32407,32408,32409,32666,32155,30364,32413,32414,32415,32416,32417,32419,32418,32420,32421,32422,32423,32424,32425,32682,32171,32428,32429,32430,32431,32688,32689,32691,32690,32692,32693,32694,32695,32696,32697,32698,32699,32700,32701,32702,32703,32192,32193,32195,32194,32196,32197,32198,32199,32200,32201,32202,32203,32204,32205,32206,32207,32464,32465,32467,32466,32468,32469,32470,32471,32472,32473,32730,32219,32476,32477,32478,32479,32480,32481,32483,32482,32484,32485,32486,32487,32488,32489,32746,32235,32492,32493,32494,32495,32496,32497,32499,32498,32500,32501,32502,32503,32504,32505,32762,32251,32508,32509,32510,32511,32256,32257,32259,32258,32260,32261,32262,32263,32264,32265,32522,32011,32268,32269,32270,32271,24336,24337,24339,24338,24336,24341,24342,24343,24351,24345,20506,24091,24342,24349,24350,24351,24352,24353,24355,24354,24356,24357,24358,24359,24360,24361,20522,24107,24364,24365,24366,24367,24369,24370,24371,24372,24373,24374,24375,24376,24377,24378,20539,24124,24381,24382,24383,24368,24399,24384,24385,24386,24387,24388,24389,24390,24391,24392,20553,24138,24395,24396,24397,24398,24400,24401,24403,24402,24404,24405,24406,24407,24408,24409,20570,24155,24412,24413,24414,24415,24416,24417,24419,24418,24420,24421,24422,24423,24424,24425,20586,24171,24428,24429,24430,24431,24432,24433,24435,24434,24436,24437,24438,24439,24440,24441,20602,24187,24444,24445,24446,24447,24448,24449,24451,24450,24452,24453,24454,24455,24456,24457,20618,24203,24460,24461,24462,24463,20624,24465,24467,24466,22676,24469,24470,24471,24472,24473,20634,24219,22172,24477,24478,24479,24480,24481,24483,24482,24484,24485,24486,24487,24488,24489,20650,24235,24492,24493,24494,24495,20656,20657,20659,20658,20660,20661,20662,20663,20664,20665,20666,20667,20668,20669,20670,20671,24256,24257,24259,24258,24260,24261,24262,24263,24264,24265,24266,24267,24268,24269,24270,24271,24528,24529,24531,24530,24532,24533,24534,24535,24536,24537,20698,24283,24540,24541,24542,24543,24544,24545,24547,24546,24548,24549,24550,24551,24552,24553,20714,24299,24556,24557,24558,24559,24560,24561,24563,24562,24564,24565,24566,24567,24568,24569,20730,24315,24572,24573,24574,24575,24320,24321,24323,24322,24324,24325,24326,24327,24328,24329,20490,24075,24332,24333,24334,24335,28912,28913,28914,28915,28912,28917,28918,28919,28912,28921,29178,32763,28919,28925,33022,24831,28672,28673,28675,28674,28673,28677,28678,28679,28672,28681,28938,32523,28679,28685,32782,24591,28688,28689,28691,28692,28690,28694,28695,28696,28688,28697,28955,32540,28695,28702,32799,24592,28704,28705,28705,28706,28707,28708,28709,28710,28704,28713,28969,32554,28711,28716,32813,24622,28720,28724,28724,28724,28724,28724,28724,28724,28728,28724,28980,32564,28732,28724,32820,24628,28736,28737,28739,28738,28741,28741,28742,28743,28736,28745,29002,32587,28743,28749,32846,24655,28752,28753,28755,28754,28758,28757,28758,28759,28752,28761,29018,32603,28759,28765,32862,24671,28768,28769,28771,28770,28775,28773,28774,28775,28768,28777,29034,32619,28775,28781,32878,24687,28784,28784,28784,28784,30836,28784,28784,28784,28792,28784,29040,32624,30588,28784,32880,24688,28800,28801,28803,28802,28809,28805,28806,28807,28800,28809,29066,32651,28807,28813,32910,24719,29072,29073,29075,29074,29082,29077,29078,29079,29072,29081,29082,29083,29079,29085,33182,24991,32672,32673,32675,32674,32683,32677,32678,32679,32672,32681,32682,32683,32679,32685,36782,28591,176,28855,28855,28855,49332,28855,28855,28855,184,28855,29111,32695,28860,28855,32951,24759,28864,28865,28867,28866,28877,28869,28870,28871,28864,28873,29130,32715,28871,28877,32974,24783,32976,32977,32979,32978,32990,32981,32982,32983,32976,32985,33242,36827,32983,32989,32990,32991,24800,24801,24803,24802,24815,24805,24806,24807,24800,24809,25066,28651,24807,24813,24814,24815,29168,29169,29171,29170,29168,29173,29174,29175,29169,29177,29434,28923,29175,29181,33278,25087,28928,28929,28931,28930,28932,28933,28934,28935,28936,28937,29194,28683,28940,28941,33038,24847,28945,28946,28947,28948,28949,28950,28951,28952,28953,28954,29211,28700,28957,28958,33055,24848,28975,28960,28961,28962,28963,28964,28965,28966,28967,28968,29225,28714,28971,28972,33069,24878,28976,28977,28979,28978,28980,28981,28982,28983,28984,28985,29242,28731,28988,28989,33086,24895,28992,28993,28995,28994,28996,28997,28998,28999,29000,29001,29258,28747,29004,29005,33102,24911,29008,29009,29011,29010,29012,29013,29014,29015,29016,29017,29274,28763,29020,29021,33118,24927,29024,29025,29027,29026,29028,29029,29030,29031,29032,29033,29290,28779,29036,29037,33134,24943,28784,29041,29043,29042,30836,29045,29046,29047,29048,29049,29306,28795,30588,29053,33150,24959,29056,29057,29059,29058,29060,29061,29062,29063,29064,29065,29322,28811,29068,29069,33166,24975,29328,29329,29331,29330,29332,29333,29334,29335,29336,29337,29338,29339,29340,29341,33438,25247,28832,28833,28835,28834,28836,28837,28838,28839,28840,28841,28842,28843,28844,28845,32942,24751,432,29105,29107,29106,49588,29109,29110,29111,4536,29113,29370,28859,29116,29117,33214,25023,29120,29121,29123,29122,29124,29125,29126,29127,29128,29129,29386,28875,29132,29133,33230,25039,33232,33233,33235,33234,33236,33237,33238,33239,33240,33241,33498,32987,33244,33245,33246,33247,25056,25057,25059,25058,25060,25061,25062,25063,25064,25065,25322,24811,25068,25069,25070,25071,29425,29426,29427,29428,29429,29430,29431,29432,29433,29434,29691,29180,29437,29438,33535,25328,29185,29186,29187,29188,29189,29190,29191,29192,29193,29194,29451,28940,29197,29198,33295,25088,29201,29202,29203,29204,29205,29206,29207,29208,29209,29210,29467,28956,29213,29214,33311,25104,29217,29218,29219,29220,29221,29222,29223,29224,29225,29226,29483,28972,29229,29230,33327,25120,29233,29234,29235,29236,29237,29238,29239,29240,29241,29242,29499,28988,29245,29246,33343,25136,29249,29250,29251,29252,29253,29254,29255,29256,29257,29258,29515,29004,29261,29262,33359,25152,29265,29266,29267,29268,29269,29270,29271,29272,29273,29274,29531,29020,29277,29278,33375,25168,29281,29282,29283,29284,29285,29286,29287,29288,29289,29290,29547,29036,29293,29294,33391,25184,28785,29298,29299,29300,30837,29302,29303,29304,29305,29306,29563,29052,30589,29310,33407,25200,29313,29314,29315,29316,29317,29318,29319,29320,29321,29322,29579,29068,29325,29326,33423,25216,29585,29586,29587,29588,29589,29590,29591,29592,29593,29594,29595,29596,29597,29598,33695,25488,29089,29090,29091,29092,29093,29094,29095,29096,29097,29098,29099,29100,29101,29102,33199,24992,689,29362,29363,29364,49845,29366,29367,29368,8889,29370,29627,29116,29373,29374,33471,25264,29377,29378,29379,29380,29381,29382,29383,29384,29385,29386,29643,29132,29389,29390,33487,25280,33489,33490,33491,33492,33493,33494,33495,33496,33497,33498,33755,33244,33501,33502,33503,33488,25313,25314,25315,25316,25317,25318,25319,25320,25321,25322,25579,25068,25325,25326,25327,25312,29695,29680,29681,29682,29683,29684,29685,29686,29687,29688,29945,29434,29691,29692,33789,25598,29455,29440,29441,29442,29443,29444,29445,29446,29447,29448,29705,29194,29451,29452,33549,25358,29471,29456,29457,29458,29459,29460,29461,29462,29463,29464,29721,29210,29467,29468,33565,25374,29487,29472,29473,29474,29475,29476,29477,29478,29479,29480,29737,29226,29483,29484,33581,25390,29503,29488,29489,29490,29491,29492,29493,29494,29495,29496,29753,29242,29499,29500,33597,25406,29519,29504,29505,29506,29507,29508,29509,29510,29511,29512,29769,29258,29515,29516,33613,25422,29535,29520,29521,29522,29523,29524,29525,29526,29527,29528,29785,29274,29531,29532,33629,25438,29551,29536,29537,29538,29539,29540,29541,29542,29543,29544,29801,29290,29547,29548,33645,25454,28799,29552,29553,29554,30835,29556,29557,29558,29559,29560,29817,29306,30587,29564,33661,25470,29583,29568,29569,29570,29571,29572,29573,29574,29575,29576,29833,29322,29579,29580,33677,25486,29855,29840,29841,29842,29843,29844,29845,29846,29847,29848,29849,29850,29851,29852,33949,25758,29359,29344,29345,29346,29347,29348,29349,29350,29351,29352,29353,29354,29355,29356,33453,25262,959,29616,29617,29618,50099,29620,29621,29622,13239,29624,29881,29370,29627,29628,33725,25534,29647,29632,29633,29634,29635,29636,29637,29638,29639,29640,29897,29386,29643,29644,33741,25550,33759,33744,33745,33746,33747,33748,33749,33750,33751,33752,34009,33498,33755,33756,33757,33758,25583,25568,25569,25570,25571,25572,25573,25574,25575,25576,25833,25322,25579,25580,25581,25582,29936,29937,29939,29938,29936,29941,29942,29943,29940,29945,30202,29691,29943,29949,34046,25855,29696,29697,29699,29698,29700,29701,29702,29703,29704,29705,29962,29451,29708,29709,33806,25615,29713,29714,29715,29716,29717,29718,29719,29720,29721,29722,29979,29468,29725,29726,33823,25616,29743,29728,29729,29730,29731,29732,29733,29734,29735,29736,29993,29482,29739,29740,33837,25646,29744,29745,29747,29746,29748,29749,29750,29751,29752,29753,30010,29499,29756,29757,33854,25663,29760,29761,29763,29762,29764,29765,29766,29767,29768,29769,30026,29515,29772,29773,33870,25679,29776,29777,29779,29778,29780,29781,29782,29783,29784,29785,30042,29531,29788,29789,33886,25695,29792,29793,29795,29794,29796,29797,29798,29799,29800,29801,30058,29547,29804,29805,33902,25711,28784,29809,29811,29810,30836,29813,29814,29815,29816,29817,30074,29563,30588,29821,33918,25727,29824,29825,29827,29826,29828,29829,29830,29831,29832,29833,30090,29579,29836,29837,33934,25743,30096,30097,30099,30098,30100,30101,30102,30103,30104,30105,30106,30107,30108,30109,34206,26015,29600,29601,29603,29602,29604,29605,29606,29607,29608,29609,29610,29611,29612,29613,33710,25519,1200,29873,29875,29874,50356,29877,29878,29879,17592,29881,30138,29627,29884,29885,33982,25791,29888,29889,29891,29890,29892,29893,29894,29895,29896,29897,30154,29643,29900,29901,33998,25807,34000,34001,34003,34002,34004,34005,34006,34007,34008,34009,34266,33755,34012,34013,34014,34015,25824,25825,25827,25826,25828,25829,25830,25831,25832,25833,26090,25579,25836,25837,25838,25839,30192,30193,30195,30194,30192,30197,30198,30199,30197,30201,30458,29947,30199,30205,34302,26111,29952,29953,29955,29954,29956,29957,29958,29959,29960,29961,30218,29707,29964,29965,34062,25871,29969,29970,29971,29972,29973,29974,29975,29976,29977,29978,30235,29724,29981,29982,34079,25872,29999,29984,29985,29986,29987,29988,29989,29990,29991,29992,30249,29738,29995,29996,34093,25902,30000,30001,30003,30002,30004,30005,30006,30007,30008,30009,30266,29755,30012,30013,34110,25919,30016,30017,30019,30018,30020,30021,30022,30023,30024,30025,30282,29771,30028,30029,34126,25935,30032,30033,30035,30034,30036,30037,30038,30039,30040,30041,30298,29787,30044,30045,34142,25951,30048,30049,30051,30050,30052,30053,30054,30055,30056,30057,30314,29803,30060,30061,34158,25967,28784,30065,30067,30066,30836,30069,30070,30071,30072,30073,30330,29819,30588,30077,34174,25983,30080,30081,30083,30082,30084,30085,30086,30087,30088,30089,30346,29835,30092,30093,34190,25999,30352,30353,30355,30354,30356,30357,30358,30359,30360,30361,30362,30363,30364,30365,34462,26271,29856,29857,29859,29858,29860,29861,29862,29863,29864,29865,29866,29867,29868,29869,33966,25775,1456,30129,30131,30130,50612,30133,30134,30135,21944,30137,30394,29883,30140,30141,34238,26047,30144,30145,30147,30146,30148,30149,30150,30151,30152,30153,30410,29899,30156,30157,34254,26063,34256,34257,34259,34258,34260,34261,34262,34263,34264,34265,34522,34011,34268,34269,34270,34271,26080,26081,26083,26082,26084,26085,26086,26087,26088,26089,26346,25835,26092,26093,26094,26095,30448,30449,30451,30450,30448,30453,30454,30455,30454,30457,30714,30203,30455,30461,34558,26367,30208,30209,30211,30210,30212,30213,30214,30215,30216,30217,30474,29963,30220,30221,34318,26127,30225,30226,30227,30228,30229,30230,30231,30232,30233,30234,30491,29980,30237,30238,34335,26128,30255,30240,30241,30242,30243,30244,30245,30246,30247,30248,30505,29994,30251,30252,34349,26158,30256,30257,30259,30258,30260,30261,30262,30263,30264,30265,30522,30011,30268,30269,34366,26175,30272,30273,30275,30274,30276,30277,30278,30279,30280,30281,30538,30027,30284,30285,34382,26191,30288,30289,30291,30290,30292,30293,30294,30295,30296,30297,30554,30043,30300,30301,34398,26207,30304,30305,30307,30306,30308,30309,30310,30311,30312,30313,30570,30059,30316,30317,34414,26223,28784,30321,30323,30322,30836,30325,30326,30327,30328,30329,30586,30075,30588,30333,34430,26239,30336,30337,30339,30338,30340,30341,30342,30343,30344,30345,30602,30091,30348,30349,34446,26255,30608,30609,30611,30610,30612,30613,30614,30615,30616,30617,30618,30619,30620,30621,34718,26527,30112,30113,30115,30114,30116,30117,30118,30119,30120,30121,30122,30123,30124,30125,34222,26031,1712,30385,30387,30386,50868,30389,30390,30391,26296,30393,30650,30139,30396,30397,34494,26303,30400,30401,30403,30402,30404,30405,30406,30407,30408,30409,30666,30155,30412,30413,34510,26319,34512,34513,34515,34514,34516,34517,34518,34519,34520,34521,34778,34267,34524,34525,34526,34527,26336,26337,26339,26338,26340,26341,26342,26343,26344,26345,26602,26091,26348,26349,26350,26351,30704,30705,30707,30706,30704,30709,30710,30711,30711,30713,30970,30459,30711,30717,34814,26623,30464,30465,30467,30466,30468,30469,30470,30471,30472,30473,30730,30219,30476,30477,34574,26383,30481,30482,30483,30484,30485,30486,30487,30488,30489,30490,30747,30236,30493,30494,34591,26384,30511,30496,30497,30498,30499,30500,30501,30502,30503,30504,30761,30250,30507,30508,34605,26414,30512,30513,30515,30514,30516,30517,30518,30519,30520,30521,30778,30267,30524,30525,34622,26431,30528,30529,30531,30530,30532,30533,30534,30535,30536,30537,30794,30283,30540,30541,34638,26447,30544,30545,30547,30546,30548,30549,30550,30551,30552,30553,30810,30299,30556,30557,34654,26463,30560,30561,30563,30562,30564,30565,30566,30567,30568,30569,30826,30315,30572,30573,34670,26479,28784,30577,30579,30578,30836,30581,30582,30583,30584,30585,30842,30331,30588,30589,34686,26495,30592,30593,30595,30594,30596,30597,30598,30599,30600,30601,30858,30347,30604,30605,34702,26511,30864,30865,30867,30866,30868,30869,30870,30871,30872,30873,30874,30875,30876,30877,34974,26783,30368,30369,30371,30370,30372,30373,30374,30375,30376,30377,30378,30379,30380,30381,34478,26287,1968,30641,30643,30642,51124,30645,30646,30647,30648,30649,30906,30395,30652,30653,34750,26559,30656,30657,30659,30658,30660,30661,30662,30663,30664,30665,30922,30411,30668,30669,34766,26575,34768,34769,34771,34770,34772,34773,34774,34775,34776,34777,35034,34523,34780,34781,34782,34783,26592,26593,26595,26594,26596,26597,26598,26599,26600,26601,26858,26347,26604,26605,26606,26607,30960,29169,29427,29682,30960,30197,30454,30711,30968,31225,31482,31739,30967,32253,36606,28671,28672,30721,30723,30722,28932,30725,30726,30727,30728,30729,30986,30475,30476,30733,34830,26639,28689,30738,30739,30740,29205,30742,30743,30744,30745,30746,31003,30492,30493,30750,34847,26640,28719,30752,30753,30754,29475,30756,30757,30758,30759,30760,31017,30506,30507,30764,34861,26670,30768,29745,29747,29746,30772,29749,29750,29751,30776,29753,29754,29755,30780,29757,33854,25663,28736,30785,30787,30786,30020,30789,30790,30791,30792,30793,31050,30539,30540,30797,34894,26703,28752,30801,30803,30802,30292,30805,30806,30807,30808,30809,31066,30555,30556,30813,34910,26719,28768,30817,30819,30818,30564,30821,30822,30823,30824,30825,31082,30571,30572,30829,34926,26735,28784,30833,30835,30834,30836,30837,30838,30839,30840,30841,30842,30843,30588,30845,34942,26751,28800,30849,30851,30850,31108,30853,30854,30855,30856,30857,31114,30603,30604,30861,34958,26767,28816,30865,31123,31122,31380,31125,31126,31127,30872,30873,31130,31131,30620,31133,35230,27039,28832,30881,30627,30626,31652,30629,30630,30631,30888,30889,30634,30635,30636,30637,34734,26543,2224,30641,30643,30642,51380,30645,30646,30647,35000,30649,30650,30651,30908,30653,34750,26559,28864,30913,30915,30914,32196,30917,30918,30919,30920,30921,31178,30667,30668,30925,35022,26831,32976,35025,35027,35026,36564,35029,35030,35031,35032,35033,35290,34779,34780,35037,35038,35039,24800,26849,26851,26850,28644,26853,26854,26855,26856,26857,27114,26603,26604,26861,26862,26863,31216,31217,31219,31218,31216,31221,31222,31223,31225,31225,31482,30971,31223,31229,35326,27135,30976,30977,30979,30978,30980,30981,30982,30983,30984,30985,31242,30731,30988,30989,35086,26895,30993,30994,30995,30996,30997,30998,30999,31000,31001,31002,31259,30748,31005,31006,35103,26896,31023,31008,31009,31010,31011,31012,31013,31014,31015,31016,31273,30762,31019,31020,35117,26926,31024,31025,31027,31026,31028,31029,31030,31031,31032,31033,31290,30779,31036,31037,35134,26943,31040,31041,31043,31042,31044,31045,31046,31047,31048,31049,31306,30795,31052,31053,35150,26959,31056,31057,31059,31058,31060,31061,31062,31063,31064,31065,31322,30811,31068,31069,35166,26975,31072,31073,31075,31074,31076,31077,31078,31079,31080,31081,31338,30827,31084,31085,35182,26991,28784,31089,31091,31090,30836,31093,31094,31095,31096,31097,31354,30843,30588,31101,35198,27007,31104,31105,31107,31106,31108,31109,31110,31111,31112,31113,31370,30859,31116,31117,35214,27023,31376,31377,31379,31378,31380,31381,31382,31383,31384,31385,31386,31387,31388,31389,35486,27295,30880,30881,30883,30882,30884,30885,30886,30887,30888,30889,30890,30891,30892,30893,34990,26799,2480,31153,31155,31154,51636,31157,31158,31159,39352,31161,31418,30907,31164,31165,35262,27071,31168,31169,31171,31170,31172,31173,31174,31175,31176,31177,31434,30923,31180,31181,35278,27087,35280,35281,35283,35282,35284,35285,35286,35287,35288,35289,35546,35035,35292,35293,35294,35295,27104,27105,27107,27106,27108,27109,27110,27111,27112,27113,27370,26859,27116,27117,27118,27119,31728,31729,31731,31730,31728,31733,31734,31735,31738,31737,31738,31739,31735,31741,35838,27647,31488,31489,31491,31490,31492,31493,31494,31495,31496,31497,31498,31499,31500,31501,35598,27407,31505,31506,31507,31508,31509,31510,31511,31512,31513,31514,31515,31516,31517,31518,35615,27408,31535,31520,31521,31522,31523,31524,31525,31526,31527,31528,31529,31530,31531,31532,35629,27438,31536,31537,31539,31538,31540,31541,31542,31543,31544,31545,31546,31547,31548,31549,35646,27455,31552,31553,31555,31554,31556,31557,31558,31559,31560,31561,31562,31563,31564,31565,35662,27471,31568,31569,31571,31570,31572,31573,31574,31575,31576,31577,31578,31579,31580,31581,35678,27487,31584,31585,31587,31586,31588,31589,31590,31591,31592,31593,31594,31595,31596,31597,35694,27503,31600,31601,31603,31602,31604,31605,31606,31607,31608,31609,31610,31611,31612,31613,35710,27519,31616,31617,31619,31618,31620,31621,31622,31623,31624,31625,31626,31627,31628,31629,35726,27535,31632,31633,31635,31634,31636,31637,31638,31639,31640,31641,31642,31643,31644,31645,35742,27551,31648,31649,31651,31650,31652,31653,31654,31655,31656,31657,31658,31659,31660,31661,35758,27567,2992,31665,31667,31666,52148,31669,31670,31671,43960,31673,31674,31675,31676,31677,35774,27583,31680,31681,31683,31682,31684,31685,31686,31687,31688,31689,31690,31691,31692,31693,35790,27599,35792,35793,35795,35794,35796,35797,35798,35799,35800,35801,35802,35803,35804,35805,35806,35807,27616,27617,27619,27618,27620,27621,27622,27623,27624,27625,27626,27627,27628,27629,27630,27631,31472,31473,31475,31474,31472,31477,31478,31479,31483,31481,31482,31483,31479,31485,35582,27391,31232,31233,31235,31234,31236,31237,31238,31239,31240,31241,31242,31243,31244,31245,35342,27151,31249,31250,31251,31252,31253,31254,31255,31256,31257,31258,31259,31260,31261,31262,35359,27152,31279,31264,31265,31266,31267,31268,31269,31270,31271,31272,31273,31274,31275,31276,35373,27182,31280,31281,31283,31282,31284,31285,31286,31287,31288,31289,31290,31291,31292,31293,35390,27199,31296,31297,31299,31298,31300,31301,31302,31303,31304,31305,31306,31307,31308,31309,35406,27215,31312,31313,31315,31314,31316,31317,31318,31319,31320,31321,31322,31323,31324,31325,35422,27231,31328,31329,31331,31330,31332,31333,31334,31335,31336,31337,31338,31339,31340,31341,35438,27247,31344,31345,31347,31346,31348,31349,31350,31351,31352,31353,31354,31355,31356,31357,35454,27263,31360,31361,31363,31362,31364,31365,31366,31367,31368,31369,31370,31371,31372,31373,35470,27279,31376,31377,31379,31378,31380,31381,31382,31383,31384,31385,31386,31387,31388,31389,35486,27295,31392,31393,31395,31394,31396,31397,31398,31399,31400,31401,31402,31403,31404,31405,35502,27311,2736,31409,31411,31410,51892,31413,31414,31415,47800,31417,31418,31419,31420,31421,35518,27327,31424,31425,31427,31426,31428,31429,31430,31431,31432,31433,31434,31435,31436,31437,35534,27343,35536,35537,35539,35538,35540,35541,35542,35543,35544,35545,35546,35547,35548,35549,35550,35551,27360,27361,27363,27362,27364,27365,27366,27367,27368,27369,27370,27371,27372,27373,27374,27375,31984,7409,11507,15602,31984,23797,27894,31991,31996,40185,44538,48123,31991,56573,60670,64767,3072,31745,31747,31746,7172,31749,31750,31751,52232,31753,32010,31499,31756,31757,35854,27663,3089,31762,31763,31764,11285,31766,31767,31768,52249,31770,32027,31516,31773,31774,35871,27664,3119,31776,31777,31778,15395,31780,31781,31782,52263,31784,32041,31530,31787,31788,35885,27694,31792,19505,19507,19506,31796,19509,19510,19511,31800,19513,19770,19259,31804,19517,19518,19519,3136,31809,31811,31810,23620,31813,31814,31815,52296,31817,32074,31563,31820,31821,35918,27727,3152,31825,31827,31826,27732,31829,31830,31831,52312,31833,32090,31579,31836,31837,35934,27743,3168,31841,31843,31842,31844,31845,31846,31847,52328,31849,32106,31595,31852,31853,35950,27759,28784,52337,52339,52338,30836,52341,52342,52343,31864,52345,52602,52091,30588,52349,52350,52351,3200,31873,31875,31874,40068,31877,31878,31879,52360,31881,32138,31627,31884,31885,35982,27791,3472,32145,32147,32146,44436,32149,32150,32151,52632,32153,32154,32155,32156,32157,36254,28063,2976,31649,31651,31650,48036,31653,31654,31655,52136,31657,31658,31659,31660,31661,35758,27567,3248,31921,31923,31922,52404,31925,31926,31927,52408,31929,32186,31675,31932,31933,31934,31935,3264,31937,31939,31938,56516,31941,31942,31943,52424,31945,32202,31691,31948,31949,36046,27855,3280,31953,36051,36050,60628,36053,36054,36055,52440,31961,36314,35803,31964,36061,36062,36063,3296,31969,27875,27874,64740,27877,27878,27879,52456,31977,28138,27627,31980,27885,27886,27887,32240,32241,32243,32242,32240,32245,32246,32247,32253,32249,32506,31995,32247,32253,36350,28159,32000,32001,32003,32002,32004,32005,32006,32007,32008,32009,32266,31755,32012,32013,36110,27919,32017,32018,32019,32020,32021,32022,32023,32024,32025,32026,32283,31772,32029,32030,36127,27920,32047,32032,32033,32034,32035,32036,32037,32038,32039,32040,32297,31786,32043,32044,36141,27950,32048,32049,32051,32050,32052,32053,32054,32055,32056,32057,32314,31803,32060,32061,36158,27967,32064,32065,32067,32066,32068,32069,32070,32071,32072,32073,32330,31819,32076,32077,36174,27983,32080,32081,32083,32082,32084,32085,32086,32087,32088,32089,32346,31835,32092,32093,36190,27999,32096,32097,32099,32098,32100,32101,32102,32103,32104,32105,32362,31851,32108,32109,36206,28015,28784,32113,32115,32114,30836,32117,32118,32119,32120,32121,32378,31867,30588,32125,36222,28031,32128,32129,32131,32130,32132,32133,32134,32135,32136,32137,32394,31883,32140,32141,36238,28047,32400,32401,32403,32402,32404,32405,32406,32407,32408,32409,32410,32411,32412,32413,36510,28319,31904,31905,31907,31906,31908,31909,31910,31911,31912,31913,31914,31915,31916,31917,36014,27823,3504,32177,32179,32178,52660,32181,32182,32183,56760,32185,32442,31931,32188,32189,36286,28095,32192,32193,32195,32194,32196,32197,32198,32199,32200,32201,32458,31947,32204,32205,36302,28111,36304,36305,36307,36306,36308,36309,36310,36311,36312,36313,36570,36059,36316,36317,36318,36319,28128,28129,28131,28130,28132,28133,28134,28135,28136,28137,28394,27883,28140,28141,28142,28143,36592,36593,36595,36594,36592,36597,36598,36599,36606,36601,36858,36347,36599,36605,36606,36607,36352,36353,36355,36354,36356,36357,36358,36359,36360,36361,36618,36107,36364,36365,36366,36367,36369,36370,36371,36372,36373,36374,36375,36376,36377,36378,36635,36124,36381,36382,36383,36368,36399,36384,36385,36386,36387,36388,36389,36390,36391,36392,36649,36138,36395,36396,36397,36398,36400,36401,36403,36402,36404,36405,36406,36407,36408,36409,36666,36155,36412,36413,36414,36415,36416,36417,36419,36418,36420,36421,36422,36423,36424,36425,36682,36171,36428,36429,36430,36431,36432,36433,36435,36434,36436,36437,36438,36439,36440,36441,36698,36187,36444,36445,36446,36447,36448,36449,36451,36450,36452,36453,36454,36455,36456,36457,36714,36203,36460,36461,36462,36463,32880,36465,36467,36466,34932,36469,36470,36471,36472,36473,36730,36219,34684,36477,36478,36479,36480,36481,36483,36482,36484,36485,36486,36487,36488,36489,36746,36235,36492,36493,36494,36495,36752,36753,36755,36754,36756,36757,36758,36759,36760,36761,36762,36763,36764,36765,36766,36767,36256,36257,36259,36258,36260,36261,36262,36263,36264,36265,36266,36267,36268,36269,36270,36271,36528,36529,36531,36530,36532,36533,36534,36535,36536,36537,36794,36283,36540,36541,36542,36543,36544,36545,36547,36546,36548,36549,36550,36551,36552,36553,36810,36299,36556,36557,36558,36559,36560,36561,36563,36562,36564,36565,36566,36567,36568,36569,36826,36315,36572,36573,36574,36575,36576,36577,36579,36578,36580,36581,36582,36583,36584,36585,36842,36331,36588,36589,36590,36591,28656,28657,28659,28658,28656,28661,28662,28663,28671,28665,24826,28411,28663,28669,28670,28671,28416,28417,28419,28418,28420,28421,28422,28423,28424,28425,24586,28171,28428,28429,28430,28431,28433,28434,28435,28436,28437,28438,28439,28440,28441,28442,24603,28188,28445,28446,28447,28432,28463,28448,28449,28450,28451,28452,28453,28454,28455,28456,24617,28202,28459,28460,28461,28462,28464,28465,28467,28466,28468,28469,28470,28471,28472,28473,24634,28219,28476,28477,28478,28479,28480,28481,28483,28482,28484,28485,28486,28487,28488,28489,24650,28235,28492,28493,28494,28495,28496,28497,28499,28498,28500,28501,28502,28503,28504,28505,24666,28251,28508,28509,28510,28511,28512,28513,28515,28514,28516,28517,28518,28519,28520,28521,24682,28267,28524,28525,28526,28527,24688,28529,28531,28530,26740,28533,28534,28535,28536,28537,24698,28283,26492,28541,28542,28543,28544,28545,28547,28546,28548,28549,28550,28551,28552,28553,24714,28299,28556,28557,28558,28559,24720,24721,24723,24722,24724,24725,24726,24727,24728,24729,24730,24731,24732,24733,24734,24735,28320,28321,28323,28322,28324,28325,28326,28327,28328,28329,28330,28331,28332,28333,28334,28335,28592,28593,28595,28594,28596,28597,28598,28599,28600,28601,24762,28347,28604,28605,28606,28607,28608,28609,28611,28610,28612,28613,28614,28615,28616,28617,24778,28363,28620,28621,28622,28623,28624,28625,28627,28626,28628,28629,28630,28631,28632,28633,24794,28379,28636,28637,28638,28639,28640,28641,28643,28642,28644,28645,28646,28647,28648,28649,24810,28395,28652,28653,28654,28655,32768,33024,32770,32771,33792,34053,32790,33015,34816,35072,33034,36619,35848,36109,36878,28687,32784,33041,33299,33554,32785,34069,34342,34567,32784,35097,35354,35611,32792,36125,40478,32543,32800,33058,33315,33572,32802,34086,34359,34584,32800,35114,35371,35628,32808,36142,40495,32544,32816,33072,33329,33586,32819,34100,34373,34598,32816,35128,35385,35642,32824,36156,40509,32574,32768,33028,32836,32836,33860,34052,32852,32820,34824,35076,33092,36676,35980,36100,36932,28740,32848,33105,33363,33618,32853,34133,34406,34631,32848,35161,35418,35675,32856,36189,40542,32607,32880,33137,33395,33650,32886,34165,34422,34679,32880,35193,35450,35707,32888,36221,40574,32639,32864,33121,33379,33634,32871,34149,34406,34663,32864,35177,35434,35691,32872,36205,40558,32623,32896,33152,32896,32896,33924,34176,32912,32880,34952,35200,33152,36736,35980,36224,36992,28800,32912,33169,33427,33682,32921,34197,34470,34695,32912,35225,35482,35739,32920,36253,40606,32671,33184,33185,33443,33698,33194,34213,34486,34711,33184,35241,35498,35755,33192,36269,40622,32687,36784,33201,33459,33714,36795,34229,34502,34727,36784,35257,35514,35771,36792,36285,40638,32703,192,456,32968,32968,50372,1480,32984,32952,2248,2504,33224,36808,36044,3528,37064,28872,32976,33233,33491,33746,32989,34261,34534,34759,32976,35289,35546,35803,32984,36317,40670,32735,37088,37345,37603,37858,37102,38373,38646,38871,37088,39401,39658,39915,37096,40429,40686,40943,28912,29169,29427,29682,28927,30197,30214,30695,28912,31225,31482,31739,28920,32253,32510,32767,33024,33025,33283,33538,33024,34053,34326,34807,33025,35081,35338,35595,33032,36109,40462,32527,32784,33041,33043,33042,33044,33045,33062,33031,33048,33049,33306,32795,34844,33053,37150,28959,32801,33058,33059,33060,33317,33062,33079,33048,33065,33066,33323,32812,34861,33070,37167,28960,32831,33072,33073,33074,33587,33076,33093,33062,33079,33080,33337,32826,34875,33084,37181,28990,33024,33857,33859,33858,33092,33861,33878,33847,33048,33865,33866,33867,33164,33869,37966,29775,32848,33105,33107,33106,34132,33109,33126,33095,33112,33113,33370,32859,34908,33117,37214,29023,32880,33137,33139,33138,34420,33141,33142,33143,33144,33145,33402,32891,34940,33149,37246,29055,32864,33121,33123,33122,34660,33125,33126,33127,33128,33129,33386,32875,34924,33133,37230,29039,32896,33153,33155,33154,34948,33157,33174,33143,33160,33161,33162,33163,34956,33165,37262,29071,32912,33169,33171,33170,35220,33173,33190,33159,33176,33177,33434,32923,34972,33181,37278,29087,32928,33185,33443,33442,35492,33445,33462,33431,33192,33193,33450,33451,34988,33453,37550,29359,32944,33201,32947,32946,35764,32949,32966,32935,33208,33209,32954,32955,35004,32957,37054,28863,448,35009,35011,35010,49604,35013,35030,34999,4552,35017,35018,35019,33228,35021,39118,30927,32976,33233,33235,33234,36308,33237,33254,33223,33240,33241,33498,32987,35036,33245,37342,29151,37088,37345,37347,37346,40676,37349,37366,37335,37352,37353,37610,37099,39148,37357,37358,37359,28912,29169,29171,29170,32756,29173,28934,29159,29176,29177,29434,28923,30972,29181,29182,29183,33281,33026,33283,33540,33285,34054,34327,34808,33289,35082,35339,35596,33293,36110,40463,32512,32785,33298,33299,33300,33045,33302,33319,33288,33305,33306,33563,33052,34845,33310,37407,29200,32801,33314,33315,33316,33317,33318,33335,33304,33321,33322,33579,33068,34861,33326,37423,29216,32817,33330,33331,33332,33589,33334,33351,33320,33337,33338,33595,33084,34877,33342,37439,29232,33281,33858,33859,33860,33349,33862,33879,33848,33321,33866,33867,33868,33421,33870,37967,29760,32849,33362,33363,33364,34133,33366,33383,33352,33369,33370,33627,33116,34909,33374,37471,29264,32881,33394,33395,33396,34421,33398,33399,33400,33401,33402,33659,33148,34941,33406,37503,29296,32865,33378,33379,33380,34661,33382,33383,33384,33385,33386,33643,33132,34925,33390,37487,29280,32897,33410,33411,33412,34949,33414,33431,33400,33417,33418,33419,33420,34957,33422,37519,29312,32913,33426,33427,33428,35221,33430,33447,33416,33433,33434,33691,33180,34973,33438,37535,29328,32929,33442,33699,33700,35493,33702,33719,33688,33449,33450,33707,33708,34989,33710,37807,29600,32945,33458,33203,33204,35765,33206,33223,33192,33465,33466,33211,33212,35005,33214,37311,29104,705,35010,35011,35012,49861,35014,35031,35000,8905,35018,35019,35020,33485,35022,39119,30912,32977,33490,33491,33492,36309,33494,33511,33480,33497,33498,33755,33244,35037,33502,37599,29392,37089,37602,37603,37604,40677,37606,37623,37592,37609,37610,37867,37356,39149,37614,37615,37600,28913,29426,29427,29428,32757,29430,29191,29416,29433,29434,29691,29180,30973,29438,29439,29424,33551,33024,33281,33538,33539,34052,34325,34806,33543,35080,35337,35594,33547,36108,40461,32526,32799,33552,33553,33554,33043,33556,33573,33542,33559,33560,33817,33306,34843,33564,37661,29470,32815,33568,33569,33570,33315,33572,33589,33558,33575,33576,33833,33322,34859,33580,37677,29486,32831,33584,33585,33586,33587,33588,33605,33574,33591,33592,33849,33338,34875,33596,37693,29502,33551,33856,33857,33858,33603,33860,33877,33846,33591,33864,33865,33866,33675,33868,37965,29774,32863,33616,33617,33618,34131,33620,33637,33606,33623,33624,33881,33370,34907,33628,37725,29534,32895,33648,33649,33650,34419,33652,33653,33654,33655,33656,33913,33402,34939,33660,37757,29566,32879,33632,33633,33634,34659,33636,33637,33638,33639,33640,33897,33386,34923,33644,37741,29550,32911,33664,33665,33666,34947,33668,33685,33654,33671,33672,33673,33674,34955,33676,37773,29582,32927,33680,33681,33682,35219,33684,33701,33670,33687,33688,33945,33434,34971,33692,37789,29598,32943,33696,33953,33954,35491,33956,33973,33942,33703,33704,33961,33962,34987,33964,38061,29870,32959,33712,33457,33458,35763,33460,33477,33446,33719,33720,33465,33466,35003,33468,37565,29374,975,35008,35009,35010,50115,35012,35029,34998,13255,35016,35017,35018,33739,35020,39117,30926,32991,33744,33745,33746,36307,33748,33765,33734,33751,33752,34009,33498,35035,33756,37853,29662,37103,37856,37857,37858,40675,37860,37877,37846,37863,37864,38121,37610,39147,37868,37869,37870,28927,29680,29681,29682,32755,29684,29445,29670,29687,29688,29945,29434,30971,29692,29693,29694,32768,32788,33827,33842,32768,32852,33894,33911,32772,32916,34218,33723,32776,32980,38126,29951,33792,33041,33043,33042,33812,33045,33062,33031,33864,33049,33050,33051,33932,33053,37150,28959,33793,33314,33315,33316,33829,33318,33335,33304,33865,33322,33323,33324,33933,33326,37423,29216,33807,33584,33585,33586,33843,33588,33605,33574,33863,33592,33593,33594,33931,33596,37693,29502,33792,33857,33859,33858,33860,33861,33862,33863,33864,33865,34122,33611,33932,33869,37966,29775,33792,34129,34131,34130,33876,34133,34150,34119,33864,34137,34138,34139,33932,34141,38238,30047,33792,34417,34419,34418,33892,34421,34422,34423,33864,34425,34426,34427,33932,34429,38526,30335,33792,34657,34659,34658,33908,34661,34662,34663,33864,34665,34666,34667,33932,34669,38766,30575,34944,34881,33859,33858,34948,34885,33862,33863,34952,34889,34122,33611,34956,34893,37966,29775,33792,35217,35219,35218,33940,35221,35238,35207,33864,35225,35226,35227,33932,35229,39326,31135,34048,35489,35491,35490,34212,35493,35510,35479,34120,35497,35498,35499,34188,35501,39598,31407,33536,35761,35763,35762,33716,35765,35782,35751,33608,35769,35770,35771,33676,35773,39870,31679,3264,19585,33923,33922,52420,19589,33926,33927,19656,19593,34186,33675,36044,19597,38030,29839,33792,36305,36307,36306,34004,36309,36326,36295,33864,36313,36314,36315,33932,36317,40414,32223,37888,40673,40675,40674,38116,40677,40694,40663,37960,40681,40682,40683,38028,40685,40686,40687,29696,32753,32755,32754,29940,32757,32518,32743,29768,32761,32762,32763,29836,32765,32766,32767,34048,33025,33283,33538,34048,34053,34326,34807,34053,35081,35338,35595,34056,36109,40462,32527,32784,34065,34067,34066,33044,34069,34086,34055,34072,34073,34330,33819,34844,34077,38174,29983,32801,34082,34083,34084,33317,34086,34103,34072,34089,34090,34347,33836,34861,34094,38191,29984,32831,34096,34097,34098,33587,34100,34117,34086,34103,34104,34361,33850,34875,34108,38205,30014,34048,33857,33859,33858,34116,33861,33878,33847,34136,33865,33866,33867,34188,33869,37966,29775,32848,34129,34131,34130,34132,34133,34150,34119,34136,34137,34394,33883,34908,34141,38238,30047,32880,34161,34163,34162,34420,34165,34166,34167,34168,34169,34426,33915,34940,34173,38270,30079,32864,34145,34147,34146,34660,34149,34150,34151,34152,34153,34410,33899,34924,34157,38254,30063,32896,34177,34179,34178,34948,34181,34198,34167,34184,34185,34186,34187,34956,34189,38286,30095,32912,34193,34195,34194,35220,34197,34214,34183,34200,34201,34458,33947,34972,34205,38302,30111,32928,34209,34467,34466,35492,34469,34486,34455,34216,34217,34474,34475,34988,34477,38574,30383,32944,34225,33971,33970,35764,33973,33990,33959,34232,34233,33978,33979,35004,33981,38078,29887,1472,35009,35011,35010,50628,35013,35030,34999,21960,35017,35018,35019,34252,35021,39118,30927,32976,34257,34259,34258,36308,34261,34278,34247,34264,34265,34522,34011,35036,34269,38366,30175,37088,38369,38371,38370,40676,38373,38390,38359,38376,38377,38634,38123,39148,38381,38382,38383,28912,30193,30195,30194,32756,30197,29958,30183,30200,30201,30458,29947,30972,30205,30206,30207,34320,33041,33299,33554,34320,34069,34326,34583,34326,35097,35354,35611,34328,36125,40478,32543,32800,34337,34339,34338,33060,34341,34342,34343,34344,34345,34602,34091,34860,34349,38446,30255,32817,34354,34355,34356,33333,34358,34359,34360,34361,34362,34619,34108,34877,34366,38463,30256,32847,34368,34369,34370,33603,34372,34373,34374,34375,34376,34633,34122,34891,34380,38477,30286,34384,33873,33875,33874,34388,33877,33878,33879,34392,33881,33882,33883,34396,33885,37982,29791,32864,34401,34403,34402,34148,34405,34406,34407,34408,34409,34666,34155,34924,34413,38510,30319,32880,34417,34419,34418,34420,34421,34422,34423,34424,34425,34682,34171,34940,34429,38526,30335,32896,34433,34435,34434,34692,34437,34438,34439,34440,34441,34698,34187,34956,34445,38542,30351,32912,34449,34451,34450,34964,34453,34454,34455,34456,34457,34458,34459,34972,34461,38558,30367,32928,34465,34467,34466,35236,34469,34470,34471,34472,34473,34730,34219,34988,34477,38574,30383,32944,34481,34739,34738,35508,34741,34742,34743,34488,34489,34746,34747,35004,34749,38846,30655,32960,34497,34243,34242,35780,34245,34246,34247,34504,34505,34250,34251,35020,34253,38350,30159,1744,35025,35027,35026,50900,35029,35030,35031,26328,35033,35034,35035,34524,35037,39134,30943,32992,34529,34531,34530,36324,34533,34534,34535,34536,34537,34794,34283,35052,34541,38638,30447,37104,38641,38643,38642,40692,38645,38646,38647,38648,38649,38906,38395,39164,38653,38654,38655,28672,30209,30211,30210,32516,30213,30214,30215,30216,30217,30474,29963,30732,30221,30222,30223,34800,33265,33523,33778,34800,34293,34550,34807,34807,35321,35578,35835,34808,36349,40702,32767,32768,34561,34563,34562,33028,34565,34566,34567,34568,34569,34826,34315,34828,34573,38670,30479,32785,34578,34579,34580,33301,34582,34583,34584,34585,34586,34843,34332,34845,34590,38687,30480,32815,34592,34593,34594,33571,34596,34597,34598,34599,34600,34857,34346,34859,34604,38701,30510,34608,33841,33843,33842,34612,33845,33846,33847,34616,33849,33850,33851,34620,33853,37950,29759,32832,34625,34627,34626,34116,34629,34630,34631,34632,34633,34890,34379,34892,34637,38734,30543,32848,34641,34643,34642,34388,34645,34646,34647,34648,34649,34906,34395,34908,34653,38750,30559,32864,34657,34659,34658,34660,34661,34662,34663,34664,34665,34922,34411,34924,34669,38766,30575,32880,34673,34675,34674,34932,34677,34678,34679,34680,34681,34682,34683,34940,34685,38782,30591,32896,34689,34691,34690,35204,34693,34694,34695,34696,34697,34954,34443,34956,34701,38798,30607,32912,34705,34963,34962,35476,34965,34966,34967,34712,34713,34970,34971,34972,34973,39070,30879,32928,34721,34467,34466,35748,34469,34470,34471,34728,34729,34474,34475,34988,34477,38574,30383,1968,34993,34995,34994,51124,34997,34998,34999,30648,35001,35002,35003,34748,35005,39102,30911,32960,34753,34755,34754,36292,34757,34758,34759,34760,34761,35018,34507,35020,34765,38862,30671,37072,38865,38867,38866,40660,38869,38870,38871,38872,38873,39130,38619,39132,38877,38878,38879,28896,30689,30691,30690,32740,30693,30694,30695,30696,30697,30954,30443,30956,30701,30702,30703,34816,34824,33283,33538,34816,34056,34326,34807,34824,34824,35338,35595,34824,36104,40462,32527,32784,34833,34835,34834,33044,34837,34854,34823,34840,34841,34842,34843,34844,34845,38942,30751,32801,34850,34851,34852,33317,34854,34871,34840,34857,34858,34859,34860,34861,34862,38959,30752,32831,34864,34865,34866,33587,34868,34885,34854,34871,34872,34873,34874,34875,34876,38973,30782,34816,34945,33859,33858,34884,33925,33878,33847,34952,34953,33866,33867,34956,33933,37966,29775,32848,34897,34899,34898,34132,34901,34918,34887,34904,34905,34906,34907,34908,34909,39006,30815,32880,34929,34931,34930,34420,34933,34934,34935,34936,34937,34938,34939,34940,34941,39038,30847,32864,34913,34915,34914,34660,34917,34918,34919,34920,34921,34922,34923,34924,34925,39022,30831,34944,34945,34947,34946,34948,34949,34966,34935,34952,34953,34954,34955,34956,34957,39054,30863,32912,34961,34963,34962,35220,34965,34982,34951,34968,34969,34970,34971,34972,34973,39070,30879,32928,34977,34979,34978,35492,34981,34998,34967,34984,34985,34986,34987,34988,34989,39086,30895,32944,34993,34995,34994,35764,34997,35014,34983,35000,35001,35002,35003,35004,35005,39102,30911,2240,35009,35011,35010,51396,35013,35030,34999,35016,35017,35018,35019,35020,35021,39118,30927,32976,35025,35027,35026,36308,35029,35046,35015,35032,35033,35034,35035,35036,35037,39134,30943,37088,39137,39139,39138,40676,39141,39158,39127,39144,39145,39146,39147,39148,39149,39150,39151,28912,30961,30963,30962,32756,30965,30726,30951,30968,30969,30970,30971,30972,30973,30974,30975,35072,33025,33283,33538,35072,34053,34326,34807,35081,35081,35338,35595,35080,36109,40462,32527,32784,35089,35091,35090,33044,35093,35110,35079,35096,35097,35354,34843,34844,35101,39198,31007,32801,35106,35107,35108,33317,35110,35127,35096,35113,35114,35371,34860,34861,35118,39215,31008,32831,35120,35121,35122,33587,35124,35141,35110,35127,35128,35385,34874,34875,35132,39229,31038,35072,33857,33859,33858,35140,33861,33878,33847,35224,33865,33866,33867,35212,33869,37966,29775,32848,35153,35155,35154,34132,35157,35174,35143,35160,35161,35418,34907,34908,35165,39262,31071,32880,35185,35187,35186,34420,35189,35190,35191,35192,35193,35450,34939,34940,35197,39294,31103,32864,35169,35171,35170,34660,35173,35174,35175,35176,35177,35434,34923,34924,35181,39278,31087,32896,35201,35203,35202,34948,35205,35222,35191,35208,35209,35210,35211,34956,35213,39310,31119,32912,35217,35219,35218,35220,35221,35238,35207,35224,35225,35482,34971,34972,35229,39326,31135,32928,35233,35491,35490,35492,35493,35510,35479,35240,35241,35498,35499,34988,35501,39598,31407,32944,35249,34995,34994,35764,34997,35014,34983,35256,35257,35002,35003,35004,35005,39102,30911,2496,35009,35011,35010,51652,35013,35030,34999,39368,35017,35018,35019,35276,35021,39118,30927,32976,35281,35283,35282,36308,35285,35302,35271,35288,35289,35546,35035,35036,35293,39390,31199,37088,39393,39395,39394,40676,39397,39414,39383,39400,39401,39658,39147,39148,39405,39406,39407,28912,31217,31219,31218,32756,31221,30982,31207,31224,31225,31482,30971,30972,31229,31230,31231,35584,33025,33283,33538,35584,34053,34326,34807,35594,35081,35338,35595,35592,36109,40462,32527,32784,35601,35603,35602,33044,35605,35622,35591,35352,35609,35610,35611,34844,35613,39710,31519,32801,35362,35619,35620,33317,35622,35639,35608,35369,35370,35627,35628,34861,35630,39727,31520,32831,35376,35633,35634,33587,35636,35653,35622,35383,35384,35641,35642,34875,35644,39741,31550,35584,33857,33859,33858,35652,33861,33878,33847,35752,33865,33866,33867,35724,33869,37966,29775,32848,35409,35667,35666,34132,35669,35686,35655,35416,35417,35674,35675,34908,35677,39774,31583,32880,35441,35699,35698,34420,35701,35702,35703,35448,35449,35706,35707,34940,35709,39806,31615,32864,35425,35683,35682,34660,35685,35686,35687,35432,35433,35690,35691,34924,35693,39790,31599,35712,35457,35459,35458,35716,35461,35478,35447,35720,35465,35466,35467,35724,35469,39566,31375,32912,35729,35731,35730,35220,35733,35750,35719,35480,35737,35738,35739,34972,35741,39838,31647,32928,35489,35747,35746,35492,35749,35766,35735,35496,35497,35754,35755,34988,35757,39854,31663,32944,35505,35763,35762,35764,35765,35782,35751,35512,35513,35770,35771,35004,35773,39870,31679,3008,35009,35011,35010,52164,35013,35030,34999,43976,35017,35018,35019,35788,35021,39118,30927,32976,35537,35795,35794,36308,35797,35814,35783,35544,35545,35802,35803,35036,35805,39902,31711,37088,39649,39907,39906,40676,39909,39926,39895,39656,39657,39914,39915,39148,39917,39918,39919,28912,31473,31731,31730,32756,31733,31494,31719,31480,31481,31738,31739,30972,31741,31742,31743,35328,33025,33283,33538,35328,34053,34326,34807,35339,35081,35338,35595,35336,36109,40462,32527,32784,35345,35347,35346,33044,35349,35366,35335,35608,35353,35354,35355,34844,35357,39454,31263,32801,35618,35363,35364,33317,35366,35383,35352,35625,35626,35371,35372,34861,35374,39471,31264,32831,35632,35377,35378,33587,35380,35397,35366,35639,35640,35385,35386,34875,35388,39485,31294,35328,33857,33859,33858,35396,33861,33878,33847,35512,33865,33866,33867,35468,33869,37966,29775,32848,35665,35411,35410,34132,35413,35430,35399,35672,35673,35418,35419,34908,35421,39518,31327,32880,35697,35443,35442,34420,35445,35446,35447,35704,35705,35450,35451,34940,35453,39550,31359,32864,35681,35427,35426,34660,35429,35430,35431,35688,35689,35434,35435,34924,35437,39534,31343,35456,35713,35715,35714,35460,35717,35734,35703,35464,35721,35722,35723,35468,35725,39822,31631,32912,35473,35475,35474,35220,35477,35494,35463,35736,35481,35482,35483,34972,35485,39582,31391,32928,35745,35491,35490,35492,35493,35510,35479,35752,35753,35498,35499,34988,35501,39598,31407,32944,35761,35507,35506,35764,35509,35526,35495,35768,35769,35514,35515,35004,35517,39614,31423,2752,35009,35011,35010,51908,35013,35030,34999,47816,35017,35018,35019,35532,35021,39118,30927,32976,35793,35539,35538,36308,35541,35558,35527,35800,35801,35546,35547,35036,35549,39646,31455,37088,39905,39651,39650,40676,39653,39670,39639,39912,39913,39658,39659,39148,39661,39662,39663,28912,31729,31475,31474,32756,31477,31238,31463,31736,31737,31482,31483,30972,31485,31486,31487,34816,6156,11267,15362,34816,22540,27670,31991,34828,38924,44298,47883,34824,55308,60430,64527,3088,34833,34835,34834,7188,34837,34854,34823,52248,34841,34842,34843,35868,34845,38942,30751,3105,34850,34851,34852,11301,34854,34871,34840,52265,34858,34859,34860,35885,34862,38959,30752,3135,34864,34865,34866,15411,34868,34885,34854,52279,34872,34873,34874,35899,34876,38973,30782,34816,18625,19523,19522,34884,18629,19542,19511,35016,18633,19786,19275,34956,18637,19534,19535,3152,34897,34899,34898,23636,34901,34918,34887,52312,34905,34906,34907,35932,34909,39006,30815,3184,34929,34931,34930,27764,34933,34934,34935,52344,34937,34938,34939,35964,34941,39038,30847,3168,34913,34915,34914,31844,34917,34918,34919,52328,34921,34922,34923,35948,34925,39022,30831,34944,51329,52355,52354,34948,51333,52374,52343,34952,51337,52618,52107,34956,51341,52366,52367,3216,34961,34963,34962,40084,34965,34982,34951,52376,34969,34970,34971,35996,34973,39070,30879,3488,34977,34979,34978,44452,34981,34998,34967,52648,34985,34986,34987,36268,34989,39086,30895,2992,34993,34995,34994,48052,34997,35014,34983,52152,35001,35002,35003,35772,35005,39102,30911,2240,51393,36035,36034,51396,35013,36054,36023,51400,51401,36298,35787,35020,35021,36046,36047,3280,35025,35027,35026,56532,35029,35046,35015,52440,35033,35034,35035,36060,35037,39134,30943,3296,39137,39139,39138,60644,39141,39158,39127,52456,39145,39146,39147,36076,39149,39150,39151,3312,30961,30963,30962,64756,30965,30726,30951,52472,30969,30970,30971,36092,30973,30974,30975,36096,33025,33283,33538,36096,34053,34326,34807,36109,35081,35338,35595,36104,36109,40462,32527,32784,36113,36115,36114,33044,36117,36134,36103,36120,36121,36378,35867,34844,36125,40222,32031,32801,36130,36131,36132,33317,36134,36151,36120,36137,36138,36395,35884,34861,36142,40239,32032,32831,36144,36145,36146,33587,36148,36165,36134,36151,36152,36409,35898,34875,36156,40253,32062,36096,33857,33859,33858,36164,33861,33878,33847,36312,33865,33866,33867,36236,33869,37966,29775,32848,36177,36179,36178,34132,36181,36198,36167,36184,36185,36442,35931,34908,36189,40286,32095,32880,36209,36211,36210,34420,36213,36214,36215,36216,36217,36474,35963,34940,36221,40318,32127,32864,36193,36195,36194,34660,36197,36198,36199,36200,36201,36458,35947,34924,36205,40302,32111,32896,36225,36227,36226,34948,36229,36246,36215,36232,36233,36234,36235,34956,36237,40334,32143,32912,36241,36243,36242,35220,36245,36262,36231,36248,36249,36506,35995,34972,36253,40350,32159,32928,36257,36515,36514,35492,36517,36534,36503,36264,36265,36522,36523,34988,36525,40622,32431,32944,36273,36019,36018,35764,36021,36038,36007,36280,36281,36026,36027,35004,36029,40126,31935,3520,35009,35011,35010,52676,35013,35030,34999,56776,35017,35018,35019,36300,35021,39118,30927,32976,36305,36307,36306,36308,36309,36326,36295,36312,36313,36570,36059,35036,36317,40414,32223,37088,40417,40419,40418,40676,40421,40438,40407,40424,40425,40682,40171,39148,40429,40430,40431,28912,32241,32243,32242,32756,32245,32006,32231,32248,32249,32506,31995,30972,32253,32254,32255,40448,37121,37379,37634,40448,38149,38422,38903,40462,39177,39434,39691,40456,40205,40462,40719,36880,40465,40467,40466,37140,40469,40486,40455,40472,40473,40730,40219,38940,40477,40478,40479,36897,40482,40483,40484,37413,40486,40503,40472,40489,40490,40747,40236,38957,40494,40495,40480,36927,40496,40497,40498,37683,40500,40517,40486,40503,40504,40761,40250,38971,40508,40509,40510,40448,37953,37955,37954,40516,37957,37974,37943,40680,37961,37962,37963,40588,37965,37966,37967,36944,40529,40531,40530,38228,40533,40550,40519,40536,40537,40794,40283,39004,40541,40542,40543,36976,40561,40563,40562,38516,40565,40566,40567,40568,40569,40826,40315,39036,40573,40574,40575,36960,40545,40547,40546,38756,40549,40550,40551,40552,40553,40810,40299,39020,40557,40558,40559,36992,40577,40579,40578,39044,40581,40598,40567,40584,40585,40586,40587,39052,40589,40590,40591,37008,40593,40595,40594,39316,40597,40614,40583,40600,40601,40858,40347,39068,40605,40606,40607,37024,40609,40867,40866,39588,40869,40886,40855,40616,40617,40874,40875,39084,40877,40878,40879,37040,40625,40371,40370,39860,40373,40390,40359,40632,40633,40378,40379,39100,40381,40382,40383,40640,39105,39107,39106,40644,39109,39126,39095,40648,39113,39114,39115,40652,39117,39118,39119,37072,40657,40659,40658,40404,40661,40678,40647,40664,40665,40922,40411,39132,40669,40670,40671,37088,40673,40675,40674,40676,40677,40694,40663,40680,40681,40938,40427,39148,40685,40686,40687,37104,40689,40691,40690,40948,40693,40454,40679,40696,40697,40954,40443,39164,40701,40702,40703,32512,28929,29187,29442,32512,29957,30230,30711,32527,30985,31242,31499,32520,32013,32270,32527,28688,32529,32531,32530,28948,32533,32550,32519,32536,32537,28698,32283,30748,32541,32542,32543,28705,32546,32547,32548,29221,32550,32567,32536,32553,32554,28715,32300,30765,32558,32559,32544,28735,32560,32561,32562,29491,32564,32581,32550,32567,32568,28729,32314,30779,32572,32573,32574,32512,29761,29763,29762,32580,29765,29782,29751,32760,29769,29770,29771,32652,29773,29774,29775,28752,32593,32595,32594,30036,32597,32614,32583,32600,32601,28762,32347,30812,32605,32606,32607,28784,32625,32627,32626,30324,32629,32630,32631,32632,32633,28794,32379,30844,32637,32638,32639,28768,32609,32611,32610,30564,32613,32614,32615,32616,32617,28778,32363,30828,32621,32622,32623,28800,32641,32643,32642,30852,32645,32662,32631,32648,32649,32650,32651,30860,32653,32654,32655,28816,32657,32659,32658,31124,32661,32678,32647,32664,32665,28826,32411,30876,32669,32670,32671,28832,32673,28835,28834,31396,28837,28854,28823,32680,32681,28842,28843,30892,28845,28846,28847,28848,32689,32435,32434,31668,32437,32454,32423,32696,32697,32442,32443,30908,32445,32446,32447,32704,30913,30915,30914,32708,30917,30934,30903,32712,30921,30922,30923,32716,30925,30926,30927,28880,32721,32723,32722,32212,32725,32742,32711,32728,32729,28890,32475,30940,32733,32734,32735,28896,32737,32739,32738,32484,32741,32758,32727,32744,32745,28906,32491,30956,32749,32750,32751,28912,32753,32755,32754,32756,32757,32518,32743,32760,32761,28922,32507,30972,32765,32766,32767,36864,36865,36866,36867,36864,36869,36886,37111,36864,36873,37130,40715,36873,36877,40974,32783,36880,36881,36883,36882,36881,36885,36902,36871,36880,36889,37146,40731,36889,36893,40990,32799,36896,36897,36899,36900,36898,36902,36919,36888,36896,36905,37163,40748,36905,36910,41007,32800,36912,36913,36913,36914,36915,36916,36933,36902,36912,36921,37177,40762,36921,36924,41021,32830,36864,36932,36932,36932,36932,36932,36948,36916,36872,36932,37188,40772,37020,36932,41028,32836,36944,36945,36947,36946,36949,36949,36966,36935,36944,36953,37210,40795,36953,36957,41054,32863,36976,36977,36979,36978,36982,36981,36982,36983,36976,36985,37242,40827,36985,36989,41086,32895,36960,36961,36963,36962,36967,36965,36966,36967,36960,36969,37226,40811,36969,36973,41070,32879,36992,36992,36992,36992,39044,36992,37008,36976,37000,36992,37248,40832,39308,36992,41088,32896,37008,37009,37011,37010,37017,37013,37030,36999,37008,37017,37274,40859,37017,37021,41118,32927,37280,37281,37283,37282,37290,37285,37302,37271,37280,37289,37290,37291,37289,37293,41390,33199,40880,40881,40883,40882,40891,40885,40902,40871,40880,40889,40890,40891,40889,40893,44990,36799,192,37065,37065,37065,49348,37065,37081,37049,200,37065,37321,40905,37068,37065,41161,32969,37072,37073,37075,37074,37085,37077,37094,37063,37072,37081,37338,40923,37081,37085,41182,32991,41184,41185,41187,41186,41198,41189,41206,41175,41184,41193,41450,45035,41193,41197,41198,41199,33008,33009,33011,33010,33023,33013,32774,32999,33008,33017,33274,36859,33017,33021,33022,33023,37120,37121,37123,37122,37120,37125,37142,37367,37121,37129,37386,36875,37129,37133,41230,33039,37136,37137,37139,37138,37140,37141,37158,37127,37144,37145,37402,36891,37148,37149,41246,33055,37153,37154,37155,37156,37157,37158,37175,37144,37161,37162,37419,36908,37165,37166,41263,33056,37183,37168,37169,37170,37171,37172,37189,37158,37175,37176,37433,36922,37179,37180,41277,33086,37120,37185,37187,37186,37188,37189,37206,37175,37144,37193,37450,36939,37276,37197,41294,33103,37200,37201,37203,37202,37204,37205,37222,37191,37208,37209,37466,36955,37212,37213,41310,33119,37232,37233,37235,37234,37236,37237,37238,37239,37240,37241,37498,36987,37244,37245,41342,33151,37216,37217,37219,37218,37220,37221,37222,37223,37224,37225,37482,36971,37228,37229,41326,33135,36992,37249,37251,37250,39044,37253,37270,37239,37256,37257,37514,37003,39308,37261,41358,33167,37264,37265,37267,37266,37268,37269,37286,37255,37272,37273,37530,37019,37276,37277,41374,33183,37536,37537,37539,37538,37540,37541,37558,37527,37544,37545,37546,37547,37548,37549,41646,33455,37040,37041,37043,37042,37044,37045,37062,37031,37048,37049,37050,37051,37052,37053,41150,32959,448,37313,37315,37314,49604,37317,37334,37303,4552,37321,37578,37067,37324,37325,41422,33231,37328,37329,37331,37330,37332,37333,37350,37319,37336,37337,37594,37083,37340,37341,41438,33247,41440,41441,41443,41442,41444,41445,41462,41431,41448,41449,41706,41195,41452,41453,41454,41455,33264,33265,33267,33266,33268,33269,33030,33255,33272,33273,33530,33019,33276,33277,33278,33279,37377,37378,37379,37380,37381,37382,37399,37624,37385,37386,37643,37132,37389,37390,41487,33280,37393,37394,37395,37396,37397,37398,37415,37384,37401,37402,37659,37148,37405,37406,41503,33296,37409,37410,37411,37412,37413,37414,37431,37400,37417,37418,37675,37164,37421,37422,41519,33312,37425,37426,37427,37428,37429,37430,37447,37416,37433,37434,37691,37180,37437,37438,41535,33328,37377,37442,37443,37444,37445,37446,37463,37432,37417,37450,37707,37196,37533,37454,41551,33344,37457,37458,37459,37460,37461,37462,37479,37448,37465,37466,37723,37212,37469,37470,41567,33360,37489,37490,37491,37492,37493,37494,37495,37496,37497,37498,37755,37244,37501,37502,41599,33392,37473,37474,37475,37476,37477,37478,37479,37480,37481,37482,37739,37228,37485,37486,41583,33376,36993,37506,37507,37508,39045,37510,37527,37496,37513,37514,37771,37260,39309,37518,41615,33408,37521,37522,37523,37524,37525,37526,37543,37512,37529,37530,37787,37276,37533,37534,41631,33424,37793,37794,37795,37796,37797,37798,37815,37784,37801,37802,37803,37804,37805,37806,41903,33696,37297,37298,37299,37300,37301,37302,37319,37288,37305,37306,37307,37308,37309,37310,41407,33200,705,37570,37571,37572,49861,37574,37591,37560,8905,37578,37835,37324,37581,37582,41679,33472,37585,37586,37587,37588,37589,37590,37607,37576,37593,37594,37851,37340,37597,37598,41695,33488,41697,41698,41699,41700,41701,41702,41719,41688,41705,41706,41963,41452,41709,41710,41711,41696,33521,33522,33523,33524,33525,33526,33287,33512,33529,33530,33787,33276,33533,33534,33535,33520,37647,37632,37633,37634,37635,37636,37653,37878,37639,37640,37897,37386,37643,37644,41741,33550,37663,37648,37649,37650,37651,37652,37669,37638,37655,37656,37913,37402,37659,37660,41757,33566,37679,37664,37665,37666,37667,37668,37685,37654,37671,37672,37929,37418,37675,37676,41773,33582,37695,37680,37681,37682,37683,37684,37701,37670,37687,37688,37945,37434,37691,37692,41789,33598,37647,37696,37697,37698,37699,37700,37717,37686,37687,37704,37961,37450,37787,37708,41805,33614,37727,37712,37713,37714,37715,37716,37733,37702,37719,37720,37977,37466,37723,37724,41821,33630,37759,37744,37745,37746,37747,37748,37749,37750,37751,37752,38009,37498,37755,37756,41853,33662,37743,37728,37729,37730,37731,37732,37733,37734,37735,37736,37993,37482,37739,37740,41837,33646,37007,37760,37761,37762,39043,37764,37781,37750,37767,37768,38025,37514,39307,37772,41869,33678,37791,37776,37777,37778,37779,37780,37797,37766,37783,37784,38041,37530,37787,37788,41885,33694,38063,38048,38049,38050,38051,38052,38069,38038,38055,38056,38057,38058,38059,38060,42157,33966,37567,37552,37553,37554,37555,37556,37573,37542,37559,37560,37561,37562,37563,37564,41661,33470,975,37824,37825,37826,50115,37828,37845,37814,13255,37832,38089,37578,37835,37836,41933,33742,37855,37840,37841,37842,37843,37844,37861,37830,37847,37848,38105,37594,37851,37852,41949,33758,41967,41952,41953,41954,41955,41956,41973,41942,41959,41960,42217,41706,41963,41964,41965,41966,33791,33776,33777,33778,33779,33780,33541,33766,33783,33784,34041,33530,33787,33788,33789,33790,37888,37905,37923,37938,37888,37973,37990,38007,37892,38041,38314,37819,37897,38109,42222,34047,37888,37905,37907,37906,37908,37909,37926,37895,37960,37913,38170,37659,38044,37917,42014,33823,37889,37922,37923,37924,37925,37926,37943,37912,37961,37930,38187,37676,38045,37934,42031,33824,37903,37936,37937,37938,37939,37940,37957,37926,37959,37944,38201,37690,38043,37948,42045,33854,37888,37953,37955,37954,37956,37957,37958,37959,37960,37961,38218,37707,38044,37965,42062,33871,37888,37969,37971,37970,37972,37973,37990,37959,37960,37977,38234,37723,38044,37981,42078,33887,37888,37985,38003,38002,37988,38005,38006,38007,37960,37993,38266,37755,38044,38013,42110,33919,37888,38001,37987,37986,38004,37989,37990,37991,37960,38009,38250,37739,38044,37997,42094,33903,36992,37953,37955,37954,39044,37957,37958,37959,38024,37961,38218,37707,39308,37965,42062,33871,37888,38033,38035,38034,38036,38037,38054,38023,37960,38041,38298,37787,38044,38045,42142,33951,38144,38305,38307,38306,38308,38309,38326,38295,38216,38313,38314,38315,38300,38317,42414,34223,37632,37809,37811,37810,37812,37813,37830,37799,37704,37817,37818,37819,37788,37821,41918,33727,1216,38033,38035,38034,50372,38037,38038,38039,17608,38041,38298,37787,38092,38045,42142,33951,37888,38097,38099,38098,38100,38101,38118,38087,37960,38105,38362,37851,38044,38109,42206,34015,41984,42209,42211,42210,42212,42213,42230,42199,42056,42217,42474,41963,42140,42221,42222,42223,33792,34033,34035,34034,34036,34037,33798,34023,33864,34041,34298,33787,33948,34045,34046,34047,38144,38145,38147,38146,38144,38149,38166,38391,38149,38153,38410,37899,38153,38157,42254,34063,38160,38161,38163,38162,38164,38165,38182,38151,38168,38169,38426,37915,38172,38173,42270,34079,38177,38178,38179,38180,38181,38182,38199,38168,38185,38186,38443,37932,38189,38190,42287,34080,38207,38192,38193,38194,38195,38196,38213,38182,38199,38200,38457,37946,38203,38204,42301,34110,38144,38209,38211,38210,38212,38213,38230,38199,38232,38217,38474,37963,38300,38221,42318,34127,38224,38225,38227,38226,38228,38229,38246,38215,38232,38233,38490,37979,38236,38237,42334,34143,38256,38257,38259,38258,38260,38261,38262,38263,38264,38265,38522,38011,38268,38269,42366,34175,38240,38241,38243,38242,38244,38245,38246,38247,38248,38249,38506,37995,38252,38253,42350,34159,36992,38273,38275,38274,39044,38277,38294,38263,38280,38281,38538,38027,39308,38285,42382,34191,38288,38289,38291,38290,38292,38293,38310,38279,38296,38297,38554,38043,38300,38301,42398,34207,38560,38561,38563,38562,38564,38565,38582,38551,38568,38569,38570,38571,38572,38573,42670,34479,38064,38065,38067,38066,38068,38069,38086,38055,38072,38073,38074,38075,38076,38077,42174,33983,1472,38337,38339,38338,50628,38341,38358,38327,21960,38345,38602,38091,38348,38349,42446,34255,38352,38353,38355,38354,38356,38357,38374,38343,38360,38361,38618,38107,38364,38365,42462,34271,42464,42465,42467,42466,42468,42469,42486,42455,42472,42473,42730,42219,42476,42477,42478,42479,34288,34289,34291,34290,34292,34293,34054,34279,34296,34297,34554,34043,34300,34301,34302,34303,38416,38417,38419,38418,38416,38421,38422,38423,38422,38425,38682,38171,38425,38429,42526,34335,38432,38433,38435,38434,38436,38437,38438,38439,38440,38441,38698,38187,38444,38445,42542,34351,38449,38450,38451,38452,38453,38454,38455,38456,38457,38458,38715,38204,38461,38462,42559,34352,38479,38464,38465,38466,38467,38468,38469,38470,38471,38472,38729,38218,38475,38476,42573,34382,38480,38481,38483,38482,38484,38485,38486,38487,38488,38489,38746,38235,38492,38493,42590,34399,38496,38497,38499,38498,38500,38501,38502,38503,38504,38505,38762,38251,38508,38509,42606,34415,38512,38513,38515,38514,38516,38517,38518,38519,38520,38521,38778,38267,38524,38525,42622,34431,38528,38529,38531,38530,38532,38533,38534,38535,38536,38537,38794,38283,38540,38541,42638,34447,37008,38545,38547,38546,39060,38549,38550,38551,38552,38553,38810,38299,39324,38557,42654,34463,38560,38561,38563,38562,38564,38565,38566,38567,38568,38569,38826,38315,38572,38573,42670,34479,38832,38833,38835,38834,38836,38837,38838,38839,38840,38841,38842,38843,38844,38845,42942,34751,38336,38337,38339,38338,38340,38341,38342,38343,38344,38345,38346,38347,38348,38349,42446,34255,1744,38609,38611,38610,50900,38613,38614,38615,26328,38617,38874,38363,38620,38621,42718,34527,38624,38625,38627,38626,38628,38629,38630,38631,38632,38633,38890,38379,38636,38637,42734,34543,42736,42737,42739,42738,42740,42741,42742,42743,42744,42745,43002,42491,42748,42749,42750,42751,34304,34305,34307,34306,34308,34309,34310,34311,34312,34313,34570,34059,34316,34317,34318,34319,38896,38897,38899,38898,38896,38901,38902,38903,38903,38905,39162,38651,38905,38909,43006,34815,38656,38657,38659,38658,38660,38661,38662,38663,38664,38665,38922,38411,38668,38669,42766,34575,38673,38674,38675,38676,38677,38678,38679,38680,38681,38682,38939,38428,38685,38686,42783,34576,38703,38688,38689,38690,38691,38692,38693,38694,38695,38696,38953,38442,38699,38700,42797,34606,38704,38705,38707,38706,38708,38709,38710,38711,38712,38713,38970,38459,38716,38717,42814,34623,38720,38721,38723,38722,38724,38725,38726,38727,38728,38729,38986,38475,38732,38733,42830,34639,38736,38737,38739,38738,38740,38741,38742,38743,38744,38745,39002,38491,38748,38749,42846,34655,38752,38753,38755,38754,38756,38757,38758,38759,38760,38761,39018,38507,38764,38765,42862,34671,36976,38769,38771,38770,39028,38773,38774,38775,38776,38777,39034,38523,39292,38781,42878,34687,38784,38785,38787,38786,38788,38789,38790,38791,38792,38793,39050,38539,38796,38797,42894,34703,39056,39057,39059,39058,39060,39061,39062,39063,39064,39065,39066,39067,39068,39069,43166,34975,38560,38561,38563,38562,38564,38565,38566,38567,38568,38569,38570,38571,38572,38573,42670,34479,1968,38833,38835,38834,51124,38837,38838,38839,30648,38841,39098,38587,38844,38845,42942,34751,38848,38849,38851,38850,38852,38853,38854,38855,38856,38857,39114,38603,38860,38861,42958,34767,42960,42961,42963,42962,42964,42965,42966,42967,42968,42969,43226,42715,42972,42973,42974,42975,34784,34785,34787,34786,34788,34789,34790,34791,34792,34793,35050,34539,34796,34797,34798,34799,38912,37121,37379,37634,38912,38149,38422,38903,38920,39177,39434,39691,38921,40205,44558,36623,36880,38929,38931,38930,37140,38933,38950,38919,38936,38937,39194,38683,39196,38941,43038,34847,36897,38946,38947,38948,37413,38950,38967,38936,38953,38954,39211,38700,39213,38958,43055,34848,36927,38960,38961,38962,37683,38964,38981,38950,38967,38968,39225,38714,39227,38972,43069,34878,38912,37953,37955,37954,38980,37957,37974,37943,39048,37961,37962,37963,39068,37965,42062,33871,36944,38993,38995,38994,38228,38997,39014,38983,39000,39001,39258,38747,39260,39005,43102,34911,36976,39025,39027,39026,38516,39029,39030,39031,39032,39033,39290,38779,39292,39037,43134,34943,36960,39009,39011,39010,38756,39013,39014,39015,39016,39017,39274,38763,39276,39021,43118,34927,36992,39041,39043,39042,39044,39045,39062,39031,39048,39049,39050,39051,39308,39053,43150,34959,37008,39057,39059,39058,39316,39061,39078,39047,39064,39065,39322,38811,39324,39069,43166,34975,37024,39073,39331,39330,39588,39333,39350,39319,39080,39081,39338,39339,39340,39341,43438,35247,37040,39089,38835,38834,39860,38837,38854,38823,39096,39097,38842,38843,39356,38845,42942,34751,2240,39361,39363,39362,51396,39365,39382,39351,35016,39369,39370,39371,39116,39373,43470,35279,37072,39121,39123,39122,40404,39125,39142,39111,39128,39129,39386,38875,39388,39133,43230,35039,41184,43233,43235,43234,44772,43237,43254,43223,43240,43241,43498,42987,43500,43245,43246,43247,33008,35057,35059,35058,36852,35061,34822,35047,35064,35065,35322,34811,35324,35069,35070,35071,39168,39169,39171,39170,39168,39173,39190,39415,39177,39177,39434,38923,39177,39181,43278,35087,39184,39185,39187,39186,39188,39189,39206,39175,39192,39193,39450,38939,39196,39197,43294,35103,39201,39202,39203,39204,39205,39206,39223,39192,39209,39210,39467,38956,39213,39214,43311,35104,39231,39216,39217,39218,39219,39220,39237,39206,39223,39224,39481,38970,39227,39228,43325,35134,39168,39233,39235,39234,39236,39237,39254,39223,39320,39241,39498,38987,39324,39245,43342,35151,39248,39249,39251,39250,39252,39253,39270,39239,39256,39257,39514,39003,39260,39261,43358,35167,39280,39281,39283,39282,39284,39285,39286,39287,39288,39289,39546,39035,39292,39293,43390,35199,39264,39265,39267,39266,39268,39269,39270,39271,39272,39273,39530,39019,39276,39277,43374,35183,36992,39297,39299,39298,39044,39301,39318,39287,39304,39305,39562,39051,39308,39309,43406,35215,39312,39313,39315,39314,39316,39317,39334,39303,39320,39321,39578,39067,39324,39325,43422,35231,39584,39585,39587,39586,39588,39589,39606,39575,39592,39593,39594,39595,39596,39597,43694,35503,39088,39089,39091,39090,39092,39093,39110,39079,39096,39097,39098,39099,39100,39101,43198,35007,2496,39361,39363,39362,51652,39365,39382,39351,39368,39369,39626,39115,39372,39373,43470,35279,39376,39377,39379,39378,39380,39381,39398,39367,39384,39385,39642,39131,39388,39389,43486,35295,43488,43489,43491,43490,43492,43493,43510,43479,43496,43497,43754,43243,43500,43501,43502,43503,35312,35313,35315,35314,35316,35317,35078,35303,35320,35321,35578,35067,35324,35325,35326,35327,39680,39681,39683,39682,39680,39685,39702,39927,39690,39689,39690,39691,39689,39693,43790,35599,39696,39697,39699,39698,39700,39701,39718,39687,39704,39705,39706,39707,39708,39709,43806,35615,39713,39714,39715,39716,39717,39718,39735,39704,39721,39722,39723,39724,39725,39726,43823,35616,39743,39728,39729,39730,39731,39732,39749,39718,39735,39736,39737,39738,39739,39740,43837,35646,39680,39745,39747,39746,39748,39749,39766,39735,39848,39753,39754,39755,39836,39757,43854,35663,39760,39761,39763,39762,39764,39765,39782,39751,39768,39769,39770,39771,39772,39773,43870,35679,39792,39793,39795,39794,39796,39797,39798,39799,39800,39801,39802,39803,39804,39805,43902,35711,39776,39777,39779,39778,39780,39781,39782,39783,39784,39785,39786,39787,39788,39789,43886,35695,39808,39809,39811,39810,39812,39813,39830,39799,39816,39817,39818,39819,39820,39821,43918,35727,39824,39825,39827,39826,39828,39829,39846,39815,39832,39833,39834,39835,39836,39837,43934,35743,39840,39841,39843,39842,39844,39845,39862,39831,39848,39849,39850,39851,39852,39853,43950,35759,39856,39857,39859,39858,39860,39861,39878,39847,39864,39865,39866,39867,39868,39869,43966,35775,3008,39873,39875,39874,52164,39877,39894,39863,43976,39881,39882,39883,39884,39885,43982,35791,39888,39889,39891,39890,39892,39893,39910,39879,39896,39897,39898,39899,39900,39901,43998,35807,44000,44001,44003,44002,44004,44005,44022,43991,44008,44009,44010,44011,44012,44013,44014,44015,35824,35825,35827,35826,35828,35829,35590,35815,35832,35833,35834,35835,35836,35837,35838,35839,39424,39425,39427,39426,39424,39429,39446,39671,39435,39433,39434,39435,39433,39437,43534,35343,39440,39441,39443,39442,39444,39445,39462,39431,39448,39449,39450,39451,39452,39453,43550,35359,39457,39458,39459,39460,39461,39462,39479,39448,39465,39466,39467,39468,39469,39470,43567,35360,39487,39472,39473,39474,39475,39476,39493,39462,39479,39480,39481,39482,39483,39484,43581,35390,39424,39489,39491,39490,39492,39493,39510,39479,39608,39497,39498,39499,39580,39501,43598,35407,39504,39505,39507,39506,39508,39509,39526,39495,39512,39513,39514,39515,39516,39517,43614,35423,39536,39537,39539,39538,39540,39541,39542,39543,39544,39545,39546,39547,39548,39549,43646,35455,39520,39521,39523,39522,39524,39525,39526,39527,39528,39529,39530,39531,39532,39533,43630,35439,39552,39553,39555,39554,39556,39557,39574,39543,39560,39561,39562,39563,39564,39565,43662,35471,39568,39569,39571,39570,39572,39573,39590,39559,39576,39577,39578,39579,39580,39581,43678,35487,39584,39585,39587,39586,39588,39589,39606,39575,39592,39593,39594,39595,39596,39597,43694,35503,39600,39601,39603,39602,39604,39605,39622,39591,39608,39609,39610,39611,39612,39613,43710,35519,2752,39617,39619,39618,51908,39621,39638,39607,47816,39625,39626,39627,39628,39629,43726,35535,39632,39633,39635,39634,39636,39637,39654,39623,39640,39641,39642,39643,39644,39645,43742,35551,43744,43745,43747,43746,43748,43749,43766,43735,43752,43753,43754,43755,43756,43757,43758,43759,35568,35569,35571,35570,35572,35573,35334,35559,35576,35577,35578,35579,35580,35581,35582,35583,39936,7169,11267,15362,39936,23557,27670,31991,39948,39945,44298,47883,39945,56333,60430,64527,3088,39953,39955,39954,7188,39957,39974,39943,52248,39961,40218,39707,39964,39965,44062,35871,3105,39970,39971,39972,11301,39974,39991,39960,52265,39978,40235,39724,39981,39982,44079,35872,3135,39984,39985,39986,15411,39988,40005,39974,52279,39992,40249,39738,39995,39996,44093,35902,39936,19521,19523,19522,40004,19525,19542,19511,40136,19529,19786,19275,40092,19533,19534,19535,3152,40017,40019,40018,23636,40021,40038,40007,52312,40025,40282,39771,40028,40029,44126,35935,3184,40049,40051,40050,27764,40053,40054,40055,52344,40057,40314,39803,40060,40061,44158,35967,3168,40033,40035,40034,31844,40037,40038,40039,52328,40041,40298,39787,40044,40045,44142,35951,36992,52353,52355,52354,39044,52357,52374,52343,40072,52361,52618,52107,39308,52365,52366,52367,3216,40081,40083,40082,40084,40085,40102,40071,52376,40089,40346,39835,40092,40093,44190,35999,3488,40353,40355,40354,44452,40357,40374,40343,52648,40361,40362,40363,40364,40365,44462,36271,2992,39857,39859,39858,48052,39861,39878,39847,52152,39865,39866,39867,39868,39869,43966,35775,3264,40129,40131,40130,52420,40133,40150,40119,52424,40137,40394,39883,40140,40141,40142,40143,3280,40145,40147,40146,56532,40149,40166,40135,52440,40153,40410,39899,40156,40157,44254,36063,3296,40161,44259,44258,60644,44261,44278,44247,52456,40169,44522,44011,40172,44269,44270,44271,3312,40177,36083,36082,64756,36085,35846,36071,52472,40185,36346,35835,40188,36093,36094,36095,40192,40193,40195,40194,40192,40197,40214,40439,40205,40201,40458,39947,40201,40205,44302,36111,40208,40209,40211,40210,40212,40213,40230,40199,40216,40217,40474,39963,40220,40221,44318,36127,40225,40226,40227,40228,40229,40230,40247,40216,40233,40234,40491,39980,40237,40238,44335,36128,40255,40240,40241,40242,40243,40244,40261,40230,40247,40248,40505,39994,40251,40252,44349,36158,40192,40257,40259,40258,40260,40261,40278,40247,40408,40265,40522,40011,40348,40269,44366,36175,40272,40273,40275,40274,40276,40277,40294,40263,40280,40281,40538,40027,40284,40285,44382,36191,40304,40305,40307,40306,40308,40309,40310,40311,40312,40313,40570,40059,40316,40317,44414,36223,40288,40289,40291,40290,40292,40293,40294,40295,40296,40297,40554,40043,40300,40301,44398,36207,36992,40321,40323,40322,39044,40325,40342,40311,40328,40329,40586,40075,39308,40333,44430,36239,40336,40337,40339,40338,40340,40341,40358,40327,40344,40345,40602,40091,40348,40349,44446,36255,40608,40609,40611,40610,40612,40613,40630,40599,40616,40617,40618,40619,40620,40621,44718,36527,40112,40113,40115,40114,40116,40117,40134,40103,40120,40121,40122,40123,40124,40125,44222,36031,3520,40385,40387,40386,52676,40389,40406,40375,56776,40393,40650,40139,40396,40397,44494,36303,40400,40401,40403,40402,40404,40405,40422,40391,40408,40409,40666,40155,40412,40413,44510,36319,44512,44513,44515,44514,44516,44517,44534,44503,44520,44521,44778,44267,44524,44525,44526,44527,36336,36337,36339,36338,36340,36341,36102,36327,36344,36345,36602,36091,36348,36349,36350,36351,44544,44545,44547,44546,44544,44549,44566,44791,44558,44553,44810,44299,44553,44557,44558,44559,44560,44561,44563,44562,44564,44565,44582,44551,44568,44569,44826,44315,44572,44573,44574,44575,44577,44578,44579,44580,44581,44582,44599,44568,44585,44586,44843,44332,44589,44590,44591,44576,44607,44592,44593,44594,44595,44596,44613,44582,44599,44600,44857,44346,44603,44604,44605,44606,44544,44609,44611,44610,44612,44613,44630,44599,44776,44617,44874,44363,44700,44621,44622,44623,44624,44625,44627,44626,44628,44629,44646,44615,44632,44633,44890,44379,44636,44637,44638,44639,44656,44657,44659,44658,44660,44661,44662,44663,44664,44665,44922,44411,44668,44669,44670,44671,44640,44641,44643,44642,44644,44645,44646,44647,44648,44649,44906,44395,44652,44653,44654,44655,41088,44673,44675,44674,43140,44677,44694,44663,44680,44681,44938,44427,43404,44685,44686,44687,44688,44689,44691,44690,44692,44693,44710,44679,44696,44697,44954,44443,44700,44701,44702,44703,44960,44961,44963,44962,44964,44965,44982,44951,44968,44969,44970,44971,44972,44973,44974,44975,44464,44465,44467,44466,44468,44469,44486,44455,44472,44473,44474,44475,44476,44477,44478,44479,44736,44737,44739,44738,44740,44741,44758,44727,44744,44745,45002,44491,44748,44749,44750,44751,44752,44753,44755,44754,44756,44757,44774,44743,44760,44761,45018,44507,44764,44765,44766,44767,44768,44769,44771,44770,44772,44773,44790,44759,44776,44777,45034,44523,44780,44781,44782,44783,44784,44785,44787,44786,44788,44789,44550,44775,44792,44793,45050,44539,44796,44797,44798,44799,36608,36609,36611,36610,36608,36613,36630,36855,36623,36617,32778,36363,36617,36621,36622,36623,36624,36625,36627,36626,36628,36629,36646,36615,36632,36633,32794,36379,36636,36637,36638,36639,36641,36642,36643,36644,36645,36646,36663,36632,36649,36650,32811,36396,36653,36654,36655,36640,36671,36656,36657,36658,36659,36660,36677,36646,36663,36664,32825,36410,36667,36668,36669,36670,36608,36673,36675,36674,36676,36677,36694,36663,36856,36681,32842,36427,36764,36685,36686,36687,36688,36689,36691,36690,36692,36693,36710,36679,36696,36697,32858,36443,36700,36701,36702,36703,36720,36721,36723,36722,36724,36725,36726,36727,36728,36729,32890,36475,36732,36733,36734,36735,36704,36705,36707,36706,36708,36709,36710,36711,36712,36713,32874,36459,36716,36717,36718,36719,32896,36737,36739,36738,34948,36741,36758,36727,36744,36745,32906,36491,35212,36749,36750,36751,36752,36753,36755,36754,36756,36757,36774,36743,36760,36761,32922,36507,36764,36765,36766,36767,32928,32929,32931,32930,32932,32933,32950,32919,32936,32937,32938,32939,32940,32941,32942,32943,36528,36529,36531,36530,36532,36533,36550,36519,36536,36537,36538,36539,36540,36541,36542,36543,36800,36801,36803,36802,36804,36805,36822,36791,36808,36809,32970,36555,36812,36813,36814,36815,36816,36817,36819,36818,36820,36821,36838,36807,36824,36825,32986,36571,36828,36829,36830,36831,36832,36833,36835,36834,36836,36837,36854,36823,36840,36841,33002,36587,36844,36845,36846,36847,36848,36849,36851,36850,36852,36853,36614,36839,36856,36857,33018,36603,36860,36861,36862,36863,41216,41217,41218,41219,41216,41221,41238,41463,41216,41225,41226,41227,41226,41229,45326,37135,41232,41233,41235,41234,41233,41237,41254,41223,41232,41241,41242,41243,41242,41245,45342,37151,41248,41249,41251,41252,41250,41254,41271,41240,41248,41257,41259,41260,41258,41262,45359,37152,41264,41265,41265,41266,41267,41268,41285,41254,41264,41273,41273,41274,41274,41276,45373,37182,41216,41284,41284,41284,41284,41284,41300,41268,41224,41284,41284,41284,41388,41284,45380,37188,41296,41297,41299,41298,41301,41301,41318,41287,41296,41305,41306,41307,41306,41309,45406,37215,41328,41329,41331,41330,41334,41333,41334,41335,41328,41337,41338,41339,41338,41341,45438,37247,41312,41313,41315,41314,41319,41317,41318,41319,41312,41321,41322,41323,41322,41325,45422,37231,41344,41344,41344,41344,41348,41344,41360,41328,41352,41344,41344,41344,41356,41344,45440,37248,41360,41361,41363,41362,41369,41365,41382,41351,41360,41369,41370,41371,41370,41373,45470,37279,41376,41377,41379,41378,41386,41381,41398,41367,41376,41385,41386,41387,41386,41389,45486,37295,41392,41393,41395,41394,41403,41397,41414,41383,41392,41401,41402,41403,41402,41405,45502,37311,448,41418,41418,41418,49604,41418,41434,41402,456,41418,41418,41418,41420,41418,45514,37322,41424,41425,41427,41426,41437,41429,41446,41415,41424,41433,41434,41435,41434,41437,45534,37343,45536,45537,45539,45538,45550,45541,45558,45527,45536,45545,45546,45547,45546,45549,45550,45551,37360,37361,37363,37362,37375,37365,37126,37351,37360,37369,37370,37371,37370,37373,37374,37375,41472,41473,41475,41474,41472,41477,41494,41719,41473,41481,41482,41483,41482,41485,45582,37391,41488,41489,41491,41490,41492,41493,41510,41479,41496,41497,41498,41499,41500,41501,45598,37407,41505,41506,41507,41508,41509,41510,41527,41496,41513,41514,41515,41516,41517,41518,45615,37408,41535,41520,41521,41522,41523,41524,41541,41510,41527,41528,41529,41530,41531,41532,45629,37438,41472,41537,41539,41538,41540,41541,41558,41527,41496,41545,41546,41547,41644,41549,45646,37455,41552,41553,41555,41554,41556,41557,41574,41543,41560,41561,41562,41563,41564,41565,45662,37471,41584,41585,41587,41586,41588,41589,41590,41591,41592,41593,41594,41595,41596,41597,45694,37503,41568,41569,41571,41570,41572,41573,41574,41575,41576,41577,41578,41579,41580,41581,45678,37487,41600,41601,41603,41602,41604,41605,41622,41591,41608,41609,41610,41611,41612,41613,45710,37519,41616,41617,41619,41618,41620,41621,41638,41607,41624,41625,41626,41627,41628,41629,45726,37535,41632,41633,41635,41634,41636,41637,41654,41623,41640,41641,41642,41643,41644,41645,45742,37551,41648,41649,41651,41650,41652,41653,41670,41639,41656,41657,41658,41659,41660,41661,45758,37567,704,41665,41667,41666,49860,41669,41686,41655,4808,41673,41674,41675,41676,41677,45774,37583,41680,41681,41683,41682,41684,41685,41702,41671,41688,41689,41690,41691,41692,41693,45790,37599,45792,45793,45795,45794,45796,45797,45814,45783,45800,45801,45802,45803,45804,45805,45806,45807,37616,37617,37619,37618,37620,37621,37382,37607,37624,37625,37626,37627,37628,37629,37630,37631,41729,41730,41731,41732,41733,41734,41751,41976,41737,41738,41739,41740,41741,41742,45839,37632,41745,41746,41747,41748,41749,41750,41767,41736,41753,41754,41755,41756,41757,41758,45855,37648,41761,41762,41763,41764,41765,41766,41783,41752,41769,41770,41771,41772,41773,41774,45871,37664,41777,41778,41779,41780,41781,41782,41799,41768,41785,41786,41787,41788,41789,41790,45887,37680,41729,41794,41795,41796,41797,41798,41815,41784,41769,41802,41803,41804,41901,41806,45903,37696,41809,41810,41811,41812,41813,41814,41831,41800,41817,41818,41819,41820,41821,41822,45919,37712,41841,41842,41843,41844,41845,41846,41847,41848,41849,41850,41851,41852,41853,41854,45951,37744,41825,41826,41827,41828,41829,41830,41831,41832,41833,41834,41835,41836,41837,41838,45935,37728,41857,41858,41859,41860,41861,41862,41879,41848,41865,41866,41867,41868,41869,41870,45967,37760,41873,41874,41875,41876,41877,41878,41895,41864,41881,41882,41883,41884,41885,41886,45983,37776,41889,41890,41891,41892,41893,41894,41911,41880,41897,41898,41899,41900,41901,41902,45999,37792,41905,41906,41907,41908,41909,41910,41927,41896,41913,41914,41915,41916,41917,41918,46015,37808,961,41922,41923,41924,50117,41926,41943,41912,9161,41930,41931,41932,41933,41934,46031,37824,41937,41938,41939,41940,41941,41942,41959,41928,41945,41946,41947,41948,41949,41950,46047,37840,46049,46050,46051,46052,46053,46054,46071,46040,46057,46058,46059,46060,46061,46062,46063,46048,37873,37874,37875,37876,37877,37878,37639,37864,37881,37882,37883,37884,37885,37886,37887,37872,41999,41984,41985,41986,41987,41988,42005,42230,41991,41992,41993,41994,41995,41996,46093,37902,42015,42000,42001,42002,42003,42004,42021,41990,42007,42008,42009,42010,42011,42012,46109,37918,42031,42016,42017,42018,42019,42020,42037,42006,42023,42024,42025,42026,42027,42028,46125,37934,42047,42032,42033,42034,42035,42036,42053,42022,42039,42040,42041,42042,42043,42044,46141,37950,41999,42048,42049,42050,42051,42052,42069,42038,42039,42056,42057,42058,42155,42060,46157,37966,42079,42064,42065,42066,42067,42068,42085,42054,42071,42072,42073,42074,42075,42076,46173,37982,42111,42096,42097,42098,42099,42100,42101,42102,42103,42104,42105,42106,42107,42108,46205,38014,42095,42080,42081,42082,42083,42084,42085,42086,42087,42088,42089,42090,42091,42092,46189,37998,42127,42112,42113,42114,42115,42116,42133,42102,42119,42120,42121,42122,42123,42124,46221,38030,42143,42128,42129,42130,42131,42132,42149,42118,42135,42136,42137,42138,42139,42140,46237,38046,42159,42144,42145,42146,42147,42148,42165,42134,42151,42152,42153,42154,42155,42156,46253,38062,42175,42160,42161,42162,42163,42164,42181,42150,42167,42168,42169,42170,42171,42172,46269,38078,1231,42176,42177,42178,50371,42180,42197,42166,13511,42184,42185,42186,42187,42188,46285,38094,42207,42192,42193,42194,42195,42196,42213,42182,42199,42200,42201,42202,42203,42204,46301,38110,46319,46304,46305,46306,46307,46308,46325,46294,46311,46312,46313,46314,46315,46316,46317,46318,38143,38128,38129,38130,38131,38132,37893,38118,38135,38136,38137,38138,38139,38140,38141,38142,42240,42257,42275,42290,42240,42325,42342,42359,42244,42393,42410,42427,42250,42461,46574,38399,42240,42257,42259,42258,42260,42261,42278,42247,42312,42265,42266,42267,42412,42269,46366,38175,42241,42274,42275,42276,42277,42278,42295,42264,42313,42282,42283,42284,42413,42286,46383,38176,42255,42288,42289,42290,42291,42292,42309,42278,42311,42296,42297,42298,42411,42300,46397,38206,42240,42305,42307,42306,42308,42309,42310,42311,42312,42313,42314,42315,42412,42317,46414,38223,42240,42321,42323,42322,42324,42325,42342,42311,42312,42329,42330,42331,42412,42333,46430,38239,42240,42337,42355,42354,42340,42357,42358,42359,42312,42345,42362,42363,42412,42365,46462,38271,42240,42353,42339,42338,42356,42341,42342,42343,42312,42361,42346,42347,42412,42349,46446,38255,42368,42305,42307,42306,42372,42309,42310,42311,42376,42313,42314,42315,42380,42317,46414,38223,42240,42385,42387,42386,42388,42389,42406,42375,42312,42393,42394,42395,42412,42397,46494,38303,42240,42401,42403,42402,42404,42405,42422,42391,42312,42409,42410,42411,42412,42413,46510,38319,42240,42417,42419,42418,42420,42421,42438,42407,42312,42425,42426,42427,42412,42429,46526,38335,1472,42401,42403,42402,50628,42405,42406,42407,17864,42409,42410,42411,42444,42413,46510,38319,42240,42449,42451,42450,42452,42453,42470,42439,42312,42457,42458,42459,42412,42461,46558,38367,46336,46561,46563,46562,46564,46565,46582,46551,46408,46569,46570,46571,46508,46573,46574,46575,38144,38385,38387,38386,38388,38389,38150,38375,38216,38393,38394,38395,38316,38397,38398,38399,42496,42497,42499,42498,42496,42501,42518,42743,42501,42505,42506,42507,42506,42509,46606,38415,42512,42513,42515,42514,42516,42517,42534,42503,42520,42521,42522,42523,42524,42525,46622,38431,42529,42530,42531,42532,42533,42534,42551,42520,42537,42538,42539,42540,42541,42542,46639,38432,42559,42544,42545,42546,42547,42548,42565,42534,42551,42552,42553,42554,42555,42556,46653,38462,42496,42561,42563,42562,42564,42565,42582,42551,42584,42569,42570,42571,42668,42573,46670,38479,42576,42577,42579,42578,42580,42581,42598,42567,42584,42585,42586,42587,42588,42589,46686,38495,42608,42609,42611,42610,42612,42613,42614,42615,42616,42617,42618,42619,42620,42621,46718,38527,42592,42593,42595,42594,42596,42597,42598,42599,42600,42601,42602,42603,42604,42605,46702,38511,42624,42625,42627,42626,42628,42629,42646,42615,42632,42633,42634,42635,42636,42637,46734,38543,42640,42641,42643,42642,42644,42645,42662,42631,42648,42649,42650,42651,42652,42653,46750,38559,42656,42657,42659,42658,42660,42661,42678,42647,42664,42665,42666,42667,42668,42669,46766,38575,42672,42673,42675,42674,42676,42677,42694,42663,42680,42681,42682,42683,42684,42685,46782,38591,1728,42689,42691,42690,50884,42693,42710,42679,22216,42697,42698,42699,42700,42701,46798,38607,42704,42705,42707,42706,42708,42709,42726,42695,42712,42713,42714,42715,42716,42717,46814,38623,46816,46817,46819,46818,46820,46821,46838,46807,46824,46825,46826,46827,46828,46829,46830,46831,38640,38641,38643,38642,38644,38645,38406,38631,38648,38649,38650,38651,38652,38653,38654,38655,42768,42769,42771,42770,42768,42773,42774,42775,42774,42777,42778,42779,42778,42781,46878,38687,42784,42785,42787,42786,42788,42789,42790,42791,42792,42793,42794,42795,42796,42797,46894,38703,42801,42802,42803,42804,42805,42806,42807,42808,42809,42810,42811,42812,42813,42814,46911,38704,42831,42816,42817,42818,42819,42820,42821,42822,42823,42824,42825,42826,42827,42828,46925,38734,42832,42833,42835,42834,42836,42837,42838,42839,42840,42841,42842,42843,42844,42845,46942,38751,42848,42849,42851,42850,42852,42853,42854,42855,42856,42857,42858,42859,42860,42861,46958,38767,42864,42865,42867,42866,42868,42869,42870,42871,42872,42873,42874,42875,42876,42877,46974,38783,42880,42881,42883,42882,42884,42885,42886,42887,42888,42889,42890,42891,42892,42893,46990,38799,42896,42897,42899,42898,42900,42901,42902,42903,42904,42905,42906,42907,42908,42909,47006,38815,42912,42913,42915,42914,42916,42917,42918,42919,42920,42921,42922,42923,42924,42925,47022,38831,42928,42929,42931,42930,42932,42933,42934,42935,42936,42937,42938,42939,42940,42941,47038,38847,42944,42945,42947,42946,42948,42949,42950,42951,42952,42953,42954,42955,42956,42957,47054,38863,2000,42961,42963,42962,51156,42965,42966,42967,26584,42969,42970,42971,42972,42973,47070,38879,42976,42977,42979,42978,42980,42981,42982,42983,42984,42985,42986,42987,42988,42989,47086,38895,47088,47089,47091,47090,47092,47093,47094,47095,47096,47097,47098,47099,47100,47101,47102,47103,38656,38657,38659,38658,38660,38661,38662,38663,38664,38665,38666,38667,38668,38669,38670,38671,43248,43249,43251,43250,43248,43253,43254,43255,43255,43257,43258,43259,43258,43261,47358,39167,43008,43009,43011,43010,43012,43013,43014,43015,43016,43017,43018,43019,43020,43021,47118,38927,43025,43026,43027,43028,43029,43030,43031,43032,43033,43034,43035,43036,43037,43038,47135,38928,43055,43040,43041,43042,43043,43044,43045,43046,43047,43048,43049,43050,43051,43052,47149,38958,43056,43057,43059,43058,43060,43061,43062,43063,43064,43065,43066,43067,43068,43069,47166,38975,43072,43073,43075,43074,43076,43077,43078,43079,43080,43081,43082,43083,43084,43085,47182,38991,43088,43089,43091,43090,43092,43093,43094,43095,43096,43097,43098,43099,43100,43101,47198,39007,43104,43105,43107,43106,43108,43109,43110,43111,43112,43113,43114,43115,43116,43117,47214,39023,43120,43121,43123,43122,43124,43125,43126,43127,43128,43129,43130,43131,43132,43133,47230,39039,43136,43137,43139,43138,43140,43141,43142,43143,43144,43145,43146,43147,43148,43149,47246,39055,43152,43153,43155,43154,43156,43157,43158,43159,43160,43161,43162,43163,43164,43165,47262,39071,43168,43169,43171,43170,43172,43173,43174,43175,43176,43177,43178,43179,43180,43181,47278,39087,2224,43185,43187,43186,51380,43189,43190,43191,30904,43193,43194,43195,43196,43197,47294,39103,43200,43201,43203,43202,43204,43205,43206,43207,43208,43209,43210,43211,43212,43213,47310,39119,47312,47313,47315,47314,47316,47317,47318,47319,47320,47321,47322,47323,47324,47325,47326,47327,39136,39137,39139,39138,39140,39141,39142,39143,39144,39145,39146,39147,39148,39149,39150,39151,43264,43265,43267,43266,43264,43269,43286,43511,43272,43273,43274,43275,43274,43277,47374,39183,43280,43281,43283,43282,43284,43285,43302,43271,43288,43289,43290,43291,43292,43293,47390,39199,43297,43298,43299,43300,43301,43302,43319,43288,43305,43306,43307,43308,43309,43310,47407,39200,43327,43312,43313,43314,43315,43316,43333,43302,43319,43320,43321,43322,43323,43324,47421,39230,43264,43329,43331,43330,43332,43333,43350,43319,43400,43337,43338,43339,43436,43341,47438,39247,43344,43345,43347,43346,43348,43349,43366,43335,43352,43353,43354,43355,43356,43357,47454,39263,43376,43377,43379,43378,43380,43381,43382,43383,43384,43385,43386,43387,43388,43389,47486,39295,43360,43361,43363,43362,43364,43365,43366,43367,43368,43369,43370,43371,43372,43373,47470,39279,43392,43393,43395,43394,43396,43397,43414,43383,43400,43401,43402,43403,43404,43405,47502,39311,43408,43409,43411,43410,43412,43413,43430,43399,43416,43417,43418,43419,43420,43421,47518,39327,43424,43425,43427,43426,43428,43429,43446,43415,43432,43433,43434,43435,43436,43437,47534,39343,43440,43441,43443,43442,43444,43445,43462,43431,43448,43449,43450,43451,43452,43453,47550,39359,2496,43457,43459,43458,51652,43461,43478,43447,35272,43465,43466,43467,43468,43469,47566,39375,43472,43473,43475,43474,43476,43477,43494,43463,43480,43481,43482,43483,43484,43485,47582,39391,47584,47585,47587,47586,47588,47589,47606,47575,47592,47593,47594,47595,47596,47597,47598,47599,39408,39409,39411,39410,39412,39413,39174,39399,39416,39417,39418,39419,39420,39421,39422,39423,43520,43521,43523,43522,43520,43525,43542,43767,43529,43529,43530,43531,43530,43533,47630,39439,43536,43537,43539,43538,43540,43541,43558,43527,43544,43545,43546,43547,43548,43549,47646,39455,43553,43554,43555,43556,43557,43558,43575,43544,43561,43562,43563,43564,43565,43566,47663,39456,43583,43568,43569,43570,43571,43572,43589,43558,43575,43576,43577,43578,43579,43580,47677,39486,43520,43585,43587,43586,43588,43589,43606,43575,43672,43593,43594,43595,43692,43597,47694,39503,43600,43601,43603,43602,43604,43605,43622,43591,43608,43609,43610,43611,43612,43613,47710,39519,43632,43633,43635,43634,43636,43637,43638,43639,43640,43641,43642,43643,43644,43645,47742,39551,43616,43617,43619,43618,43620,43621,43622,43623,43624,43625,43626,43627,43628,43629,47726,39535,43648,43649,43651,43650,43652,43653,43670,43639,43656,43657,43658,43659,43660,43661,47758,39567,43664,43665,43667,43666,43668,43669,43686,43655,43672,43673,43674,43675,43676,43677,47774,39583,43680,43681,43683,43682,43684,43685,43702,43671,43688,43689,43690,43691,43692,43693,47790,39599,43696,43697,43699,43698,43700,43701,43718,43687,43704,43705,43706,43707,43708,43709,47806,39615,2752,43713,43715,43714,51908,43717,43734,43703,39624,43721,43722,43723,43724,43725,47822,39631,43728,43729,43731,43730,43732,43733,43750,43719,43736,43737,43738,43739,43740,43741,47838,39647,47840,47841,47843,47842,47844,47845,47862,47831,47848,47849,47850,47851,47852,47853,47854,47855,39664,39665,39667,39666,39668,39669,39430,39655,39672,39673,39674,39675,39676,39677,39678,39679,43776,43777,43779,43778,43776,43781,43798,44023,43786,43785,43786,43787,43786,43789,47886,39695,43792,43793,43795,43794,43796,43797,43814,43783,43800,43801,43802,43803,43804,43805,47902,39711,43809,43810,43811,43812,43813,43814,43831,43800,43817,43818,43819,43820,43821,43822,47919,39712,43839,43824,43825,43826,43827,43828,43845,43814,43831,43832,43833,43834,43835,43836,47933,39742,43776,43841,43843,43842,43844,43845,43862,43831,43944,43849,43850,43851,43948,43853,47950,39759,43856,43857,43859,43858,43860,43861,43878,43847,43864,43865,43866,43867,43868,43869,47966,39775,43888,43889,43891,43890,43892,43893,43894,43895,43896,43897,43898,43899,43900,43901,47998,39807,43872,43873,43875,43874,43876,43877,43878,43879,43880,43881,43882,43883,43884,43885,47982,39791,43904,43905,43907,43906,43908,43909,43926,43895,43912,43913,43914,43915,43916,43917,48014,39823,43920,43921,43923,43922,43924,43925,43942,43911,43928,43929,43930,43931,43932,43933,48030,39839,43936,43937,43939,43938,43940,43941,43958,43927,43944,43945,43946,43947,43948,43949,48046,39855,43952,43953,43955,43954,43956,43957,43974,43943,43960,43961,43962,43963,43964,43965,48062,39871,3008,43969,43971,43970,52164,43973,43990,43959,43976,43977,43978,43979,43980,43981,48078,39887,43984,43985,43987,43986,43988,43989,44006,43975,43992,43993,43994,43995,43996,43997,48094,39903,48096,48097,48099,48098,48100,48101,48118,48087,48104,48105,48106,48107,48108,48109,48110,48111,39920,39921,39923,39922,39924,39925,39686,39911,39928,39929,39930,39931,39932,39933,39934,39935,44032,44033,44035,44034,44032,44037,44054,44279,44043,44041,44042,44043,44042,44045,48142,39951,44048,44049,44051,44050,44052,44053,44070,44039,44056,44057,44058,44059,44060,44061,48158,39967,44065,44066,44067,44068,44069,44070,44087,44056,44073,44074,44075,44076,44077,44078,48175,39968,44095,44080,44081,44082,44083,44084,44101,44070,44087,44088,44089,44090,44091,44092,48189,39998,44032,44097,44099,44098,44100,44101,44118,44087,44216,44105,44106,44107,44204,44109,48206,40015,44112,44113,44115,44114,44116,44117,44134,44103,44120,44121,44122,44123,44124,44125,48222,40031,44144,44145,44147,44146,44148,44149,44150,44151,44152,44153,44154,44155,44156,44157,48254,40063,44128,44129,44131,44130,44132,44133,44134,44135,44136,44137,44138,44139,44140,44141,48238,40047,44160,44161,44163,44162,44164,44165,44182,44151,44168,44169,44170,44171,44172,44173,48270,40079,44176,44177,44179,44178,44180,44181,44198,44167,44184,44185,44186,44187,44188,44189,48286,40095,44192,44193,44195,44194,44196,44197,44214,44183,44200,44201,44202,44203,44204,44205,48302,40111,44208,44209,44211,44210,44212,44213,44230,44199,44216,44217,44218,44219,44220,44221,48318,40127,3264,44225,44227,44226,52420,44229,44246,44215,48328,44233,44234,44235,44236,44237,48334,40143,44240,44241,44243,44242,44244,44245,44262,44231,44248,44249,44250,44251,44252,44253,48350,40159,48352,48353,48355,48354,48356,48357,48374,48343,48360,48361,48362,48363,48364,48365,48366,48367,40176,40177,40179,40178,40180,40181,39942,40167,40184,40185,40186,40187,40188,40189,40190,40191,44288,7425,11523,15618,44288,23813,27926,32247,44300,40201,44298,48395,44298,56589,60686,64783,3344,44305,44307,44306,7444,44309,44326,44295,52504,44313,44314,44315,44316,44317,48414,40223,3361,44322,44323,44324,11557,44326,44343,44312,52521,44330,44331,44332,44333,44334,48431,40224,3391,44336,44337,44338,15667,44340,44357,44326,52535,44344,44345,44346,44347,44348,48445,40254,44288,19777,19779,19778,44356,19781,19798,19767,44488,19785,19786,19787,44460,19789,19790,19791,3408,44369,44371,44370,23892,44373,44390,44359,52568,44377,44378,44379,44380,44381,48478,40287,3440,44401,44403,44402,28020,44405,44406,44407,52600,44409,44410,44411,44412,44413,48510,40319,3424,44385,44387,44386,32100,44389,44390,44391,52584,44393,44394,44395,44396,44397,48494,40303,44416,52609,52611,52610,44420,52613,52630,52599,44424,52617,52618,52619,44428,52621,52622,52623,3472,44433,44435,44434,40340,44437,44454,44423,52632,44441,44442,44443,44444,44445,48542,40351,3488,44449,44451,44450,44452,44453,44470,44439,52648,44457,44458,44459,44460,44461,48558,40367,3504,44465,44467,44466,48564,44469,44486,44455,52664,44473,44474,44475,44476,44477,48574,40383,3520,44481,44483,44482,52676,44485,44502,44471,52680,44489,44490,44491,44492,44493,44494,44495,3536,44497,44499,44498,56788,44501,44518,44487,52696,44505,44506,44507,44508,44509,48606,40415,3552,44513,48611,48610,60900,48613,48630,48599,52712,44521,48618,48619,44524,48621,48622,48623,3568,44529,40435,40434,65012,40437,40198,40423,52728,44537,40442,40443,44540,40445,40446,40447,44544,44545,44547,44546,44544,44549,44566,44791,44557,44553,44554,44555,44554,44557,48654,40463,44560,44561,44563,44562,44564,44565,44582,44551,44568,44569,44570,44571,44572,44573,48670,40479,44577,44578,44579,44580,44581,44582,44599,44568,44585,44586,44587,44588,44589,44590,48687,40480,44607,44592,44593,44594,44595,44596,44613,44582,44599,44600,44601,44602,44603,44604,48701,40510,44544,44609,44611,44610,44612,44613,44630,44599,44760,44617,44618,44619,44716,44621,48718,40527,44624,44625,44627,44626,44628,44629,44646,44615,44632,44633,44634,44635,44636,44637,48734,40543,44656,44657,44659,44658,44660,44661,44662,44663,44664,44665,44666,44667,44668,44669,48766,40575,44640,44641,44643,44642,44644,44645,44646,44647,44648,44649,44650,44651,44652,44653,48750,40559,44672,44673,44675,44674,44676,44677,44694,44663,44680,44681,44682,44683,44684,44685,48782,40591,44688,44689,44691,44690,44692,44693,44710,44679,44696,44697,44698,44699,44700,44701,48798,40607,44704,44705,44707,44706,44708,44709,44726,44695,44712,44713,44714,44715,44716,44717,48814,40623,44720,44721,44723,44722,44724,44725,44742,44711,44728,44729,44730,44731,44732,44733,48830,40639,3776,44737,44739,44738,52932,44741,44758,44727,57032,44745,44746,44747,44748,44749,48846,40655,44752,44753,44755,44754,44756,44757,44774,44743,44760,44761,44762,44763,44764,44765,48862,40671,48864,48865,48867,48866,48868,48869,48886,48855,48872,48873,48874,48875,48876,48877,48878,48879,40688,40689,40691,40690,40692,40693,40454,40679,40696,40697,40698,40699,40700,40701,40702,40703,48896,48897,48899,48898,48896,48901,48918,49143,48910,48905,48906,48907,48906,48909,48910,48911,48912,48913,48915,48914,48916,48917,48934,48903,48920,48921,48922,48923,48924,48925,48926,48927,48929,48930,48931,48932,48933,48934,48951,48920,48937,48938,48939,48940,48941,48942,48943,48928,48959,48944,48945,48946,48947,48948,48965,48934,48951,48952,48953,48954,48955,48956,48957,48958,48896,48961,48963,48962,48964,48965,48982,48951,49128,48969,48970,48971,49068,48973,48974,48975,48976,48977,48979,48978,48980,48981,48998,48967,48984,48985,48986,48987,48988,48989,48990,48991,49008,49009,49011,49010,49012,49013,49014,49015,49016,49017,49018,49019,49020,49021,49022,49023,48992,48993,48995,48994,48996,48997,48998,48999,49000,49001,49002,49003,49004,49005,49006,49007,49024,49025,49027,49026,49028,49029,49046,49015,49032,49033,49034,49035,49036,49037,49038,49039,49040,49041,49043,49042,49044,49045,49062,49031,49048,49049,49050,49051,49052,49053,49054,49055,49056,49057,49059,49058,49060,49061,49078,49047,49064,49065,49066,49067,49068,49069,49070,49071,49072,49073,49075,49074,49076,49077,49094,49063,49080,49081,49082,49083,49084,49085,49086,49087,49088,49089,49091,49090,49092,49093,49110,49079,49096,49097,49098,49099,49100,49101,49102,49103,49104,49105,49107,49106,49108,49109,49126,49095,49112,49113,49114,49115,49116,49117,49118,49119,49120,49121,49123,49122,49124,49125,49142,49111,49128,49129,49130,49131,49132,49133,49134,49135,49136,49137,49139,49138,49140,49141,48902,49127,49144,49145,49146,49147,49148,49149,49150,49151,36864,36865,36867,36866,36864,36869,36886,37111,36879,36873,36874,36875,36874,36877,36878,36879,36880,36881,36883,36882,36884,36885,36902,36871,36888,36889,36890,36891,36892,36893,36894,36895,36897,36898,36899,36900,36901,36902,36919,36888,36905,36906,36907,36908,36909,36910,36911,36896,36927,36912,36913,36914,36915,36916,36933,36902,36919,36920,36921,36922,36923,36924,36925,36926,36864,36929,36931,36930,36932,36933,36950,36919,37112,36937,36938,36939,37036,36941,36942,36943,36944,36945,36947,36946,36948,36949,36966,36935,36952,36953,36954,36955,36956,36957,36958,36959,36976,36977,36979,36978,36980,36981,36982,36983,36984,36985,36986,36987,36988,36989,36990,36991,36960,36961,36963,36962,36964,36965,36966,36967,36968,36969,36970,36971,36972,36973,36974,36975,36992,36993,36995,36994,36996,36997,37014,36983,37000,37001,37002,37003,37004,37005,37006,37007,37008,37009,37011,37010,37012,37013,37030,36999,37016,37017,37018,37019,37020,37021,37022,37023,37024,37025,37027,37026,37028,37029,37046,37015,37032,37033,37034,37035,37036,37037,37038,37039,37040,37041,37043,37042,37044,37045,37062,37031,37048,37049,37050,37051,37052,37053,37054,37055,37056,37057,37059,37058,37060,37061,37078,37047,37064,37065,37066,37067,37068,37069,37070,37071,37072,37073,37075,37074,37076,37077,37094,37063,37080,37081,37082,37083,37084,37085,37086,37087,37088,37089,37091,37090,37092,37093,37110,37079,37096,37097,37098,37099,37100,37101,37102,37103,37104,37105,37107,37106,37108,37109,36870,37095,37112,37113,37114,37115,37116,37117,37118,37119,48896,48897,48898,48899,48896,48901,48918,49143,48896,48905,48906,48907,48907,48909,53006,44815,48912,48913,48915,48914,48913,48917,48934,48903,48912,48921,48922,48923,48923,48925,53022,44831,48928,48929,48931,48932,48930,48934,48951,48920,48928,48937,48939,48940,48939,48942,53039,44832,48944,48945,48945,48946,48947,48948,48965,48934,48944,48953,48953,48954,48955,48956,53053,44862,48896,48964,48964,48964,48964,48964,48980,48948,48904,48964,48964,48964,49084,48964,53060,44868,48976,48977,48979,48978,48981,48981,48998,48967,48976,48985,48986,48987,48987,48989,53086,44895,49008,49009,49011,49010,49014,49013,49014,49015,49008,49017,49018,49019,49019,49021,53118,44927,48992,48993,48995,48994,48999,48997,48998,48999,48992,49001,49002,49003,49003,49005,53102,44911,49024,49024,49024,49024,49028,49024,49040,49008,49032,49024,49024,49024,49036,49024,53120,44928,49040,49041,49043,49042,49049,49045,49062,49031,49040,49049,49050,49051,49051,49053,53150,44959,49056,49057,49059,49058,49066,49061,49078,49047,49056,49065,49066,49067,49067,49069,53166,44975,49072,49073,49075,49074,49083,49077,49094,49063,49072,49081,49082,49083,49083,49085,53182,44991,4032,49099,49099,49099,53188,49099,49115,49083,4040,49099,49099,49099,49100,49099,53195,45003,49104,49105,49107,49106,49117,49109,49126,49095,49104,49113,49114,49115,49115,49117,53214,45023,53216,53217,53219,53218,53230,53221,53238,53207,53216,53225,53226,53227,53227,53229,53230,53231,45040,45041,45043,45042,45055,45045,44806,45031,45040,45049,45050,45051,45051,45053,45054,45055,45056,45057,45059,45058,45056,45061,45078,45303,45057,45065,45066,45067,45067,45069,49166,40975,45072,45073,45075,45074,45076,45077,45094,45063,45080,45081,45082,45083,45084,45085,49182,40991,45089,45090,45091,45092,45093,45094,45111,45080,45097,45098,45099,45100,45101,45102,49199,40992,45119,45104,45105,45106,45107,45108,45125,45094,45111,45112,45113,45114,45115,45116,49213,41022,45056,45121,45123,45122,45124,45125,45142,45111,45080,45129,45130,45131,45244,45133,49230,41039,45136,45137,45139,45138,45140,45141,45158,45127,45144,45145,45146,45147,45148,45149,49246,41055,45168,45169,45171,45170,45172,45173,45174,45175,45176,45177,45178,45179,45180,45181,49278,41087,45152,45153,45155,45154,45156,45157,45158,45159,45160,45161,45162,45163,45164,45165,49262,41071,45184,45185,45187,45186,45188,45189,45206,45175,45192,45193,45194,45195,45196,45197,49294,41103,45200,45201,45203,45202,45204,45205,45222,45191,45208,45209,45210,45211,45212,45213,49310,41119,45216,45217,45219,45218,45220,45221,45238,45207,45224,45225,45226,45227,45228,45229,49326,41135,45232,45233,45235,45234,45236,45237,45254,45223,45240,45241,45242,45243,45244,45245,49342,41151,192,45249,45251,45250,49348,45253,45270,45239,4296,45257,45258,45259,45260,45261,49358,41167,45264,45265,45267,45266,45268,45269,45286,45255,45272,45273,45274,45275,45276,45277,49374,41183,49376,49377,49379,49378,49380,49381,49398,49367,49384,49385,49386,49387,49388,49389,49390,49391,41200,41201,41203,41202,41204,41205,40966,41191,41208,41209,41210,41211,41212,41213,41214,41215,45313,45314,45315,45316,45317,45318,45335,45560,45321,45322,45323,45324,45325,45326,49423,41216,45329,45330,45331,45332,45333,45334,45351,45320,45337,45338,45339,45340,45341,45342,49439,41232,45345,45346,45347,45348,45349,45350,45367,45336,45353,45354,45355,45356,45357,45358,49455,41248,45361,45362,45363,45364,45365,45366,45383,45352,45369,45370,45371,45372,45373,45374,49471,41264,45313,45378,45379,45380,45381,45382,45399,45368,45353,45386,45387,45388,45501,45390,49487,41280,45393,45394,45395,45396,45397,45398,45415,45384,45401,45402,45403,45404,45405,45406,49503,41296,45425,45426,45427,45428,45429,45430,45431,45432,45433,45434,45435,45436,45437,45438,49535,41328,45409,45410,45411,45412,45413,45414,45415,45416,45417,45418,45419,45420,45421,45422,49519,41312,45441,45442,45443,45444,45445,45446,45463,45432,45449,45450,45451,45452,45453,45454,49551,41344,45457,45458,45459,45460,45461,45462,45479,45448,45465,45466,45467,45468,45469,45470,49567,41360,45473,45474,45475,45476,45477,45478,45495,45464,45481,45482,45483,45484,45485,45486,49583,41376,45489,45490,45491,45492,45493,45494,45511,45480,45497,45498,45499,45500,45501,45502,49599,41392,449,45506,45507,45508,49605,45510,45527,45496,8649,45514,45515,45516,45517,45518,49615,41408,45521,45522,45523,45524,45525,45526,45543,45512,45529,45530,45531,45532,45533,45534,49631,41424,49633,49634,49635,49636,49637,49638,49655,49624,49641,49642,49643,49644,49645,49646,49647,49632,41457,41458,41459,41460,41461,41462,41223,41448,41465,41466,41467,41468,41469,41470,41471,41456,45583,45568,45569,45570,45571,45572,45589,45814,45575,45576,45577,45578,45579,45580,49677,41486,45599,45584,45585,45586,45587,45588,45605,45574,45591,45592,45593,45594,45595,45596,49693,41502,45615,45600,45601,45602,45603,45604,45621,45590,45607,45608,45609,45610,45611,45612,49709,41518,45631,45616,45617,45618,45619,45620,45637,45606,45623,45624,45625,45626,45627,45628,49725,41534,45583,45632,45633,45634,45635,45636,45653,45622,45623,45640,45641,45642,45755,45644,49741,41550,45663,45648,45649,45650,45651,45652,45669,45638,45655,45656,45657,45658,45659,45660,49757,41566,45695,45680,45681,45682,45683,45684,45685,45686,45687,45688,45689,45690,45691,45692,49789,41598,45679,45664,45665,45666,45667,45668,45669,45670,45671,45672,45673,45674,45675,45676,49773,41582,45711,45696,45697,45698,45699,45700,45717,45686,45703,45704,45705,45706,45707,45708,49805,41614,45727,45712,45713,45714,45715,45716,45733,45702,45719,45720,45721,45722,45723,45724,49821,41630,45743,45728,45729,45730,45731,45732,45749,45718,45735,45736,45737,45738,45739,45740,49837,41646,45759,45744,45745,45746,45747,45748,45765,45734,45751,45752,45753,45754,45755,45756,49853,41662,719,45760,45761,45762,49859,45764,45781,45750,12999,45768,45769,45770,45771,45772,49869,41678,45791,45776,45777,45778,45779,45780,45797,45766,45783,45784,45785,45786,45787,45788,49885,41694,49903,49888,49889,49890,49891,49892,49909,49878,49895,49896,49897,49898,49899,49900,49901,49902,41727,41712,41713,41714,41715,41716,41477,41702,41719,41720,41721,41722,41723,41724,41725,41726,45824,45841,45859,45874,45824,45909,45926,45943,45828,45977,45994,46011,45835,46045,50158,41983,45824,45841,45843,45842,45844,45845,45862,45831,45896,45849,45850,45851,46012,45853,49950,41759,45825,45858,45859,45860,45861,45862,45879,45848,45897,45866,45867,45868,46013,45870,49967,41760,45839,45872,45873,45874,45875,45876,45893,45862,45895,45880,45881,45882,46011,45884,49981,41790,45824,45889,45891,45890,45892,45893,45894,45895,45896,45897,45898,45899,46012,45901,49998,41807,45824,45905,45907,45906,45908,45909,45926,45895,45896,45913,45914,45915,46012,45917,50014,41823,45824,45921,45939,45938,45924,45941,45942,45943,45896,45929,45946,45947,46012,45949,50046,41855,45824,45937,45923,45922,45940,45925,45926,45927,45896,45945,45930,45931,46012,45933,50030,41839,45952,45889,45891,45890,45956,45893,45894,45895,45960,45897,45898,45899,45964,45901,49998,41807,45824,45969,45971,45970,45972,45973,45990,45959,45896,45977,45978,45979,46012,45981,50078,41887,45824,45985,45987,45986,45988,45989,46006,45975,45896,45993,45994,45995,46012,45997,50094,41903,45824,46001,46003,46002,46004,46005,46022,45991,45896,46009,46010,46011,46012,46013,50110,41919,960,46001,46003,46002,50116,46005,46006,46007,17352,46009,46010,46011,46028,46013,50110,41919,45824,46033,46035,46034,46036,46037,46054,46023,45896,46041,46042,46043,46012,46045,50142,41951,49920,50145,50147,50146,50148,50149,50166,50135,49992,50153,50154,50155,50108,50157,50158,50159,41728,41969,41971,41970,41972,41973,41734,41959,41800,41977,41978,41979,41916,41981,41982,41983,46080,46081,46083,46082,46080,46085,46102,46327,46085,46089,46090,46091,46091,46093,50190,41999,46096,46097,46099,46098,46100,46101,46118,46087,46104,46105,46106,46107,46108,46109,50206,42015,46113,46114,46115,46116,46117,46118,46135,46104,46121,46122,46123,46124,46125,46126,50223,42016,46143,46128,46129,46130,46131,46132,46149,46118,46135,46136,46137,46138,46139,46140,50237,42046,46080,46145,46147,46146,46148,46149,46166,46135,46168,46153,46154,46155,46268,46157,50254,42063,46160,46161,46163,46162,46164,46165,46182,46151,46168,46169,46170,46171,46172,46173,50270,42079,46192,46193,46195,46194,46196,46197,46198,46199,46200,46201,46202,46203,46204,46205,50302,42111,46176,46177,46179,46178,46180,46181,46182,46183,46184,46185,46186,46187,46188,46189,50286,42095,46208,46209,46211,46210,46212,46213,46230,46199,46216,46217,46218,46219,46220,46221,50318,42127,46224,46225,46227,46226,46228,46229,46246,46215,46232,46233,46234,46235,46236,46237,50334,42143,46240,46241,46243,46242,46244,46245,46262,46231,46248,46249,46250,46251,46252,46253,50350,42159,46256,46257,46259,46258,46260,46261,46278,46247,46264,46265,46266,46267,46268,46269,50366,42175,1216,46273,46275,46274,50372,46277,46294,46263,21704,46281,46282,46283,46284,46285,50382,42191,46288,46289,46291,46290,46292,46293,46310,46279,46296,46297,46298,46299,46300,46301,50398,42207,50400,50401,50403,50402,50404,50405,50422,50391,50408,50409,50410,50411,50412,50413,50414,50415,42224,42225,42227,42226,42228,42229,41990,42215,42232,42233,42234,42235,42236,42237,42238,42239,46352,46353,46355,46354,46352,46357,46358,46359,46358,46361,46362,46363,46363,46365,50462,42271,46368,46369,46371,46370,46372,46373,46374,46375,46376,46377,46378,46379,46380,46381,50478,42287,46385,46386,46387,46388,46389,46390,46391,46392,46393,46394,46395,46396,46397,46398,50495,42288,46415,46400,46401,46402,46403,46404,46405,46406,46407,46408,46409,46410,46411,46412,50509,42318,46416,46417,46419,46418,46420,46421,46422,46423,46424,46425,46426,46427,46428,46429,50526,42335,46432,46433,46435,46434,46436,46437,46438,46439,46440,46441,46442,46443,46444,46445,50542,42351,46448,46449,46451,46450,46452,46453,46454,46455,46456,46457,46458,46459,46460,46461,50558,42367,46464,46465,46467,46466,46468,46469,46470,46471,46472,46473,46474,46475,46476,46477,50574,42383,46480,46481,46483,46482,46484,46485,46486,46487,46488,46489,46490,46491,46492,46493,50590,42399,46496,46497,46499,46498,46500,46501,46502,46503,46504,46505,46506,46507,46508,46509,50606,42415,46512,46513,46515,46514,46516,46517,46518,46519,46520,46521,46522,46523,46524,46525,50622,42431,46528,46529,46531,46530,46532,46533,46534,46535,46536,46537,46538,46539,46540,46541,50638,42447,1488,46545,46547,46546,50644,46549,46550,46551,26072,46553,46554,46555,46556,46557,50654,42463,46560,46561,46563,46562,46564,46565,46566,46567,46568,46569,46570,46571,46572,46573,50670,42479,50672,50673,50675,50674,50676,50677,50678,50679,50680,50681,50682,50683,50684,50685,50686,50687,42240,42241,42243,42242,42244,42245,42246,42247,42248,42249,42250,42251,42252,42253,42254,42255,46832,46833,46835,46834,46832,46837,46838,46839,46839,46841,46842,46843,46843,46845,50942,42751,46592,46593,46595,46594,46596,46597,46598,46599,46600,46601,46602,46603,46604,46605,50702,42511,46609,46610,46611,46612,46613,46614,46615,46616,46617,46618,46619,46620,46621,46622,50719,42512,46639,46624,46625,46626,46627,46628,46629,46630,46631,46632,46633,46634,46635,46636,50733,42542,46640,46641,46643,46642,46644,46645,46646,46647,46648,46649,46650,46651,46652,46653,50750,42559,46656,46657,46659,46658,46660,46661,46662,46663,46664,46665,46666,46667,46668,46669,50766,42575,46672,46673,46675,46674,46676,46677,46678,46679,46680,46681,46682,46683,46684,46685,50782,42591,46688,46689,46691,46690,46692,46693,46694,46695,46696,46697,46698,46699,46700,46701,50798,42607,46704,46705,46707,46706,46708,46709,46710,46711,46712,46713,46714,46715,46716,46717,50814,42623,46720,46721,46723,46722,46724,46725,46726,46727,46728,46729,46730,46731,46732,46733,50830,42639,46736,46737,46739,46738,46740,46741,46742,46743,46744,46745,46746,46747,46748,46749,50846,42655,46752,46753,46755,46754,46756,46757,46758,46759,46760,46761,46762,46763,46764,46765,50862,42671,1712,46769,46771,46770,50868,46773,46774,46775,30392,46777,46778,46779,46780,46781,50878,42687,46784,46785,46787,46786,46788,46789,46790,46791,46792,46793,46794,46795,46796,46797,50894,42703,50896,50897,50899,50898,50900,50901,50902,50903,50904,50905,50906,50907,50908,50909,50910,50911,42720,42721,42723,42722,42724,42725,42726,42727,42728,42729,42730,42731,42732,42733,42734,42735,46848,46849,46851,46850,46848,46853,46870,47095,46856,46857,46858,46859,46859,46861,50958,42767,46864,46865,46867,46866,46868,46869,46886,46855,46872,46873,46874,46875,46876,46877,50974,42783,46881,46882,46883,46884,46885,46886,46903,46872,46889,46890,46891,46892,46893,46894,50991,42784,46911,46896,46897,46898,46899,46900,46917,46886,46903,46904,46905,46906,46907,46908,51005,42814,46848,46913,46915,46914,46916,46917,46934,46903,46984,46921,46922,46923,47036,46925,51022,42831,46928,46929,46931,46930,46932,46933,46950,46919,46936,46937,46938,46939,46940,46941,51038,42847,46960,46961,46963,46962,46964,46965,46966,46967,46968,46969,46970,46971,46972,46973,51070,42879,46944,46945,46947,46946,46948,46949,46950,46951,46952,46953,46954,46955,46956,46957,51054,42863,46976,46977,46979,46978,46980,46981,46998,46967,46984,46985,46986,46987,46988,46989,51086,42895,46992,46993,46995,46994,46996,46997,47014,46983,47000,47001,47002,47003,47004,47005,51102,42911,47008,47009,47011,47010,47012,47013,47030,46999,47016,47017,47018,47019,47020,47021,51118,42927,47024,47025,47027,47026,47028,47029,47046,47015,47032,47033,47034,47035,47036,47037,51134,42943,1984,47041,47043,47042,51140,47045,47062,47031,34760,47049,47050,47051,47052,47053,51150,42959,47056,47057,47059,47058,47060,47061,47078,47047,47064,47065,47066,47067,47068,47069,51166,42975,51168,51169,51171,51170,51172,51173,51190,51159,51176,51177,51178,51179,51180,51181,51182,51183,42992,42993,42995,42994,42996,42997,42758,42983,43000,43001,43002,43003,43004,43005,43006,43007,47104,47105,47107,47106,47104,47109,47126,47351,47113,47113,47114,47115,47115,47117,51214,43023,47120,47121,47123,47122,47124,47125,47142,47111,47128,47129,47130,47131,47132,47133,51230,43039,47137,47138,47139,47140,47141,47142,47159,47128,47145,47146,47147,47148,47149,47150,51247,43040,47167,47152,47153,47154,47155,47156,47173,47142,47159,47160,47161,47162,47163,47164,51261,43070,47104,47169,47171,47170,47172,47173,47190,47159,47256,47177,47178,47179,47292,47181,51278,43087,47184,47185,47187,47186,47188,47189,47206,47175,47192,47193,47194,47195,47196,47197,51294,43103,47216,47217,47219,47218,47220,47221,47222,47223,47224,47225,47226,47227,47228,47229,51326,43135,47200,47201,47203,47202,47204,47205,47206,47207,47208,47209,47210,47211,47212,47213,51310,43119,47232,47233,47235,47234,47236,47237,47254,47223,47240,47241,47242,47243,47244,47245,51342,43151,47248,47249,47251,47250,47252,47253,47270,47239,47256,47257,47258,47259,47260,47261,51358,43167,47264,47265,47267,47266,47268,47269,47286,47255,47272,47273,47274,47275,47276,47277,51374,43183,47280,47281,47283,47282,47284,47285,47302,47271,47288,47289,47290,47291,47292,47293,51390,43199,2240,47297,47299,47298,51396,47301,47318,47287,39112,47305,47306,47307,47308,47309,51406,43215,47312,47313,47315,47314,47316,47317,47334,47303,47320,47321,47322,47323,47324,47325,51422,43231,51424,51425,51427,51426,51428,51429,51446,51415,51432,51433,51434,51435,51436,51437,51438,51439,43248,43249,43251,43250,43252,43253,43014,43239,43256,43257,43258,43259,43260,43261,43262,43263,47360,47361,47363,47362,47360,47365,47382,47607,47370,47369,47370,47371,47371,47373,51470,43279,47376,47377,47379,47378,47380,47381,47398,47367,47384,47385,47386,47387,47388,47389,51486,43295,47393,47394,47395,47396,47397,47398,47415,47384,47401,47402,47403,47404,47405,47406,51503,43296,47423,47408,47409,47410,47411,47412,47429,47398,47415,47416,47417,47418,47419,47420,51517,43326,47360,47425,47427,47426,47428,47429,47446,47415,47528,47433,47434,47435,47548,47437,51534,43343,47440,47441,47443,47442,47444,47445,47462,47431,47448,47449,47450,47451,47452,47453,51550,43359,47472,47473,47475,47474,47476,47477,47478,47479,47480,47481,47482,47483,47484,47485,51582,43391,47456,47457,47459,47458,47460,47461,47462,47463,47464,47465,47466,47467,47468,47469,51566,43375,47488,47489,47491,47490,47492,47493,47510,47479,47496,47497,47498,47499,47500,47501,51598,43407,47504,47505,47507,47506,47508,47509,47526,47495,47512,47513,47514,47515,47516,47517,51614,43423,47520,47521,47523,47522,47524,47525,47542,47511,47528,47529,47530,47531,47532,47533,51630,43439,47536,47537,47539,47538,47540,47541,47558,47527,47544,47545,47546,47547,47548,47549,51646,43455,2496,47553,47555,47554,51652,47557,47574,47543,43464,47561,47562,47563,47564,47565,51662,43471,47568,47569,47571,47570,47572,47573,47590,47559,47576,47577,47578,47579,47580,47581,51678,43487,51680,51681,51683,51682,51684,51685,51702,51671,51688,51689,51690,51691,51692,51693,51694,51695,43504,43505,43507,43506,43508,43509,43270,43495,43512,43513,43514,43515,43516,43517,43518,43519,47616,47617,47619,47618,47616,47621,47638,47863,47627,47625,47626,47627,47627,47629,51726,43535,47632,47633,47635,47634,47636,47637,47654,47623,47640,47641,47642,47643,47644,47645,51742,43551,47649,47650,47651,47652,47653,47654,47671,47640,47657,47658,47659,47660,47661,47662,51759,43552,47679,47664,47665,47666,47667,47668,47685,47654,47671,47672,47673,47674,47675,47676,51773,43582,47616,47681,47683,47682,47684,47685,47702,47671,47800,47689,47690,47691,47804,47693,51790,43599,47696,47697,47699,47698,47700,47701,47718,47687,47704,47705,47706,47707,47708,47709,51806,43615,47728,47729,47731,47730,47732,47733,47734,47735,47736,47737,47738,47739,47740,47741,51838,43647,47712,47713,47715,47714,47716,47717,47718,47719,47720,47721,47722,47723,47724,47725,51822,43631,47744,47745,47747,47746,47748,47749,47766,47735,47752,47753,47754,47755,47756,47757,51854,43663,47760,47761,47763,47762,47764,47765,47782,47751,47768,47769,47770,47771,47772,47773,51870,43679,47776,47777,47779,47778,47780,47781,47798,47767,47784,47785,47786,47787,47788,47789,51886,43695,47792,47793,47795,47794,47796,47797,47814,47783,47800,47801,47802,47803,47804,47805,51902,43711,2752,47809,47811,47810,51908,47813,47830,47799,47816,47817,47818,47819,47820,47821,51918,43727,47824,47825,47827,47826,47828,47829,47846,47815,47832,47833,47834,47835,47836,47837,51934,43743,51936,51937,51939,51938,51940,51941,51958,51927,51944,51945,51946,51947,51948,51949,51950,51951,43760,43761,43763,43762,43764,43765,43526,43751,43768,43769,43770,43771,43772,43773,43774,43775,47872,6913,11011,15106,47872,23301,27414,31735,47884,39689,43786,47883,47883,56077,60174,64271,2832,47889,47891,47890,6932,47893,47910,47879,51992,47897,47898,47899,47900,47901,51998,43807,2849,47906,47907,47908,11045,47910,47927,47896,52009,47914,47915,47916,47917,47918,52015,43808,2879,47920,47921,47922,15155,47924,47941,47910,52023,47928,47929,47930,47931,47932,52029,43838,47872,19265,19267,19266,47940,19269,19286,19255,48072,19273,19274,19275,48060,19277,19278,19279,2896,47953,47955,47954,23380,47957,47974,47943,52056,47961,47962,47963,47964,47965,52062,43871,2928,47985,47987,47986,27508,47989,47990,47991,52088,47993,47994,47995,47996,47997,52094,43903,2912,47969,47971,47970,31588,47973,47974,47975,52072,47977,47978,47979,47980,47981,52078,43887,48000,52097,52099,52098,48004,52101,52118,52087,48008,52105,52106,52107,48012,52109,52110,52111,2960,48017,48019,48018,39828,48021,48038,48007,52120,48025,48026,48027,48028,48029,52126,43935,2976,48033,48035,48034,43940,48037,48054,48023,52136,48041,48042,48043,48044,48045,52142,43951,2992,48049,48051,48050,48052,48053,48070,48039,52152,48057,48058,48059,48060,48061,52158,43967,3008,48065,48067,48066,52164,48069,48086,48055,52168,48073,48074,48075,48076,48077,48078,48079,3024,48081,48083,48082,56276,48085,48102,48071,52184,48089,48090,48091,48092,48093,52190,43999,3040,48097,52195,52194,60388,52197,52214,52183,52200,48105,52202,52203,48108,52205,52206,52207,3056,48113,44019,44018,64500,44021,43782,44007,52216,48121,44026,44027,48124,44029,44030,44031,48128,48129,48131,48130,48128,48133,48150,48375,48141,48137,48138,48139,48139,48141,52238,44047,48144,48145,48147,48146,48148,48149,48166,48135,48152,48153,48154,48155,48156,48157,52254,44063,48161,48162,48163,48164,48165,48166,48183,48152,48169,48170,48171,48172,48173,48174,52271,44064,48191,48176,48177,48178,48179,48180,48197,48166,48183,48184,48185,48186,48187,48188,52285,44094,48128,48193,48195,48194,48196,48197,48214,48183,48344,48201,48202,48203,48316,48205,52302,44111,48208,48209,48211,48210,48212,48213,48230,48199,48216,48217,48218,48219,48220,48221,52318,44127,48240,48241,48243,48242,48244,48245,48246,48247,48248,48249,48250,48251,48252,48253,52350,44159,48224,48225,48227,48226,48228,48229,48230,48231,48232,48233,48234,48235,48236,48237,52334,44143,48256,48257,48259,48258,48260,48261,48278,48247,48264,48265,48266,48267,48268,48269,52366,44175,48272,48273,48275,48274,48276,48277,48294,48263,48280,48281,48282,48283,48284,48285,52382,44191,48288,48289,48291,48290,48292,48293,48310,48279,48296,48297,48298,48299,48300,48301,52398,44207,48304,48305,48307,48306,48308,48309,48326,48295,48312,48313,48314,48315,48316,48317,52414,44223,3264,48321,48323,48322,52420,48325,48342,48311,56520,48329,48330,48331,48332,48333,52430,44239,48336,48337,48339,48338,48340,48341,48358,48327,48344,48345,48346,48347,48348,48349,52446,44255,52448,52449,52451,52450,52452,52453,52470,52439,52456,52457,52458,52459,52460,52461,52462,52463,44272,44273,44275,44274,44276,44277,44038,44263,44280,44281,44282,44283,44284,44285,44286,44287,52480,52481,52483,52482,52480,52485,52502,52727,52494,52489,52490,52491,52491,52493,52494,52495,52496,52497,52499,52498,52500,52501,52518,52487,52504,52505,52506,52507,52508,52509,52510,52511,52513,52514,52515,52516,52517,52518,52535,52504,52521,52522,52523,52524,52525,52526,52527,52512,52543,52528,52529,52530,52531,52532,52549,52518,52535,52536,52537,52538,52539,52540,52541,52542,52480,52545,52547,52546,52548,52549,52566,52535,52712,52553,52554,52555,52668,52557,52558,52559,52560,52561,52563,52562,52564,52565,52582,52551,52568,52569,52570,52571,52572,52573,52574,52575,52592,52593,52595,52594,52596,52597,52598,52599,52600,52601,52602,52603,52604,52605,52606,52607,52576,52577,52579,52578,52580,52581,52582,52583,52584,52585,52586,52587,52588,52589,52590,52591,52608,52609,52611,52610,52612,52613,52630,52599,52616,52617,52618,52619,52620,52621,52622,52623,52624,52625,52627,52626,52628,52629,52646,52615,52632,52633,52634,52635,52636,52637,52638,52639,52640,52641,52643,52642,52644,52645,52662,52631,52648,52649,52650,52651,52652,52653,52654,52655,52656,52657,52659,52658,52660,52661,52678,52647,52664,52665,52666,52667,52668,52669,52670,52671,52672,52673,52675,52674,52676,52677,52694,52663,52680,52681,52682,52683,52684,52685,52686,52687,52688,52689,52691,52690,52692,52693,52710,52679,52696,52697,52698,52699,52700,52701,52702,52703,52704,52705,52707,52706,52708,52709,52726,52695,52712,52713,52714,52715,52716,52717,52718,52719,52720,52721,52723,52722,52724,52725,52486,52711,52728,52729,52730,52731,52732,52733,52734,52735,44544,44545,44547,44546,44544,44549,44566,44791,44559,44553,44554,44555,44555,44557,44558,44559,44560,44561,44563,44562,44564,44565,44582,44551,44568,44569,44570,44571,44572,44573,44574,44575,44577,44578,44579,44580,44581,44582,44599,44568,44585,44586,44587,44588,44589,44590,44591,44576,44607,44592,44593,44594,44595,44596,44613,44582,44599,44600,44601,44602,44603,44604,44605,44606,44544,44609,44611,44610,44612,44613,44630,44599,44792,44617,44618,44619,44732,44621,44622,44623,44624,44625,44627,44626,44628,44629,44646,44615,44632,44633,44634,44635,44636,44637,44638,44639,44656,44657,44659,44658,44660,44661,44662,44663,44664,44665,44666,44667,44668,44669,44670,44671,44640,44641,44643,44642,44644,44645,44646,44647,44648,44649,44650,44651,44652,44653,44654,44655,44672,44673,44675,44674,44676,44677,44694,44663,44680,44681,44682,44683,44684,44685,44686,44687,44688,44689,44691,44690,44692,44693,44710,44679,44696,44697,44698,44699,44700,44701,44702,44703,44704,44705,44707,44706,44708,44709,44726,44695,44712,44713,44714,44715,44716,44717,44718,44719,44720,44721,44723,44722,44724,44725,44742,44711,44728,44729,44730,44731,44732,44733,44734,44735,44736,44737,44739,44738,44740,44741,44758,44727,44744,44745,44746,44747,44748,44749,44750,44751,44752,44753,44755,44754,44756,44757,44774,44743,44760,44761,44762,44763,44764,44765,44766,44767,44768,44769,44771,44770,44772,44773,44790,44759,44776,44777,44778,44779,44780,44781,44782,44783,44784,44785,44787,44786,44788,44789,44550,44775,44792,44793,44794,44795,44796,44797,44798,44799,0,4108,49154,49155,16384,20485,49174,49399,32768,36876,49418,53003,49164,53261,53262,45071,49168,4113,8211,12306,49169,20501,24614,28679,49168,36889,41242,48923,49180,53277,57374,61471,49184,4130,8227,12324,49186,20518,24631,28696,49184,36906,41259,48940,49196,53294,57391,61472,49200,4144,8241,12338,49203,20532,24645,28710,49200,36920,41273,48954,49212,53308,57405,61502,0,4292,49220,49220,16452,20676,49236,49204,32776,37060,49476,53060,49356,53444,53316,45124,49232,4177,8275,12370,49237,20565,24678,28743,49232,36953,41306,48987,49244,53341,57438,61535,49264,4209,8307,12402,49270,20597,24694,28791,49264,36985,41338,49019,49276,53373,57470,61567,49248,4193,8291,12386,49255,20581,24678,28775,49248,36969,41322,49003,49260,53357,57454,61551,128,7296,49280,49280,18564,23680,49296,49264,32904,40064,49536,53120,52364,56448,53376,45184,49296,4241,8339,12434,49305,20629,24742,28807,49296,37017,41370,49051,49308,53405,57502,61599,49568,4513,8611,12706,49578,20901,25014,29079,49568,37289,41386,45483,49580,53677,57774,61871,53168,8113,12211,16306,53179,24501,28614,32679,53168,40889,44986,49083,53180,57277,61374,65471,192,4300,49356,49356,16580,20684,49372,49340,32968,37068,49612,53196,49356,53452,53452,45260,49360,4305,8403,12498,49373,20693,24806,28871,49360,37081,41434,49115,49372,53469,57566,61663,53472,4321,8419,12514,53486,20709,24822,28887,53472,37097,41450,49131,53484,53485,57582,61679,45296,4337,8435,12530,45311,20725,24582,28903,45296,37113,41466,49147,45308,53501,57598,61695,49408,4353,8451,12546,49408,20741,24854,29175,49409,37129,41482,45067,49420,53517,57614,61711,272,49425,49427,49426,4372,49429,49446,49415,4376,49433,49690,49179,49436,49437,53534,45343,289,49442,49443,49444,8485,49446,49463,49432,4393,49450,49707,49196,49453,49454,53551,45344,319,49456,49457,49458,12595,49460,49477,49446,4407,49464,49721,49210,49467,49468,53565,45374,49408,16705,16707,16706,49476,16709,16726,16695,49432,16713,16970,16459,49612,16717,16718,16719,336,49489,49491,49490,20820,49493,49510,49479,4440,49497,49754,49243,49500,49501,53598,45407,368,49521,49523,49522,24948,49525,49526,49527,4472,49529,49786,49275,49532,49533,53630,45439,352,49505,49507,49506,29028,49509,49510,49511,4456,49513,49770,49259,49516,49517,53614,45423,49280,4481,4483,4482,51332,4485,4502,4471,49544,4489,4746,4235,52364,4493,4494,4495,400,49553,49555,49554,37268,49557,49574,49543,4504,49561,49818,49307,49564,49565,53662,45471,672,49825,49827,49826,41636,49829,49846,49815,4776,49833,49834,49835,49836,49837,53934,45743,176,49329,49331,49330,45236,49333,49350,49319,4280,49337,49338,49339,49340,49341,53438,45247,448,49601,49603,49602,49604,49605,49622,49591,4552,49609,49866,49355,49612,49613,49614,49615,464,49617,49619,49618,53716,49621,49638,49607,4568,49625,49882,49371,49628,49629,53726,45535,480,49633,53731,53730,57828,53733,53750,53719,4584,49641,53994,53483,49644,53741,53742,53743,496,49649,45555,45554,61940,45557,45318,45543,4600,49657,45818,45307,49660,45565,45566,45567,49665,4610,8707,12804,49669,20998,25111,29432,49673,37386,41739,45324,49677,53774,57871,61952,529,49682,49683,49684,4629,49686,49703,49672,8729,49690,49947,49436,49693,49694,53791,45584,545,49698,49699,49700,8741,49702,49719,49688,8745,49706,49963,49452,49709,49710,53807,45600,561,49714,49715,49716,12853,49718,49735,49704,8761,49722,49979,49468,49725,49726,53823,45616,49665,16962,16963,16964,49733,16966,16983,16952,49705,16970,17227,16716,49869,16974,16975,16960,593,49746,49747,49748,21077,49750,49767,49736,8793,49754,50011,49500,49757,49758,53855,45648,625,49778,49779,49780,25205,49782,49783,49784,8825,49786,50043,49532,49789,49790,53887,45680,609,49762,49763,49764,29285,49766,49767,49768,8809,49770,50027,49516,49773,49774,53871,45664,49281,8834,8835,8836,51333,8838,8855,8824,49801,8842,9099,8588,52365,8846,8847,8832,657,49810,49811,49812,37525,49814,49831,49800,8857,49818,50075,49564,49821,49822,53919,45712,929,50082,50083,50084,41893,50086,50103,50072,9129,50090,50091,50092,50093,50094,54191,45984,433,49586,49587,49588,45493,49590,49607,49576,8633,49594,49595,49596,49597,49598,53695,45488,705,49858,49859,49860,49861,49862,49879,49848,8905,49866,50123,49612,49869,49870,49871,49856,721,49874,49875,49876,53973,49878,49895,49864,8921,49882,50139,49628,49885,49886,53983,45776,737,49890,53987,53988,58085,53990,54007,53976,8937,49898,54251,53740,49901,53998,53999,53984,753,49906,45811,45812,62197,45814,45575,45800,8953,49914,46075,45564,49917,45822,45823,45808,49935,4864,8961,13058,49923,21252,25365,29686,49927,37640,41993,45578,49931,54028,58125,62222,799,49936,49937,49938,4883,49940,49957,49926,13079,49944,50201,49690,49947,49948,54045,45854,815,49952,49953,49954,8995,49956,49973,49942,13095,49960,50217,49706,49963,49964,54061,45870,831,49968,49969,49970,13107,49972,49989,49958,13111,49976,50233,49722,49979,49980,54077,45886,49935,17216,17217,17218,49987,17220,17237,17206,49975,17224,17481,16970,50123,17228,17229,17230,863,50000,50001,50002,21331,50004,50021,49990,13143,50008,50265,49754,50011,50012,54109,45918,895,50032,50033,50034,25459,50036,50037,50038,13175,50040,50297,49786,50043,50044,54141,45950,879,50016,50017,50018,29539,50020,50021,50022,13159,50024,50281,49770,50027,50028,54125,45934,49295,13184,13185,13186,51331,13188,13205,13174,50055,13192,13449,12938,52363,13196,13197,13198,927,50064,50065,50066,37779,50068,50085,50054,13207,50072,50329,49818,50075,50076,54173,45982,1199,50336,50337,50338,42147,50340,50357,50326,13479,50344,50345,50346,50347,50348,54445,46254,703,49840,49841,49842,45747,49844,49861,49830,12983,49848,49849,49850,49851,49852,53949,45758,975,50112,50113,50114,50115,50116,50133,50102,13255,50120,50377,49866,50123,50124,50125,50126,991,50128,50129,50130,54227,50132,50149,50118,13271,50136,50393,49882,50139,50140,54237,46046,1007,50144,54241,54242,58339,54244,54261,54230,13287,50152,54505,53994,50155,54252,54253,54254,1023,50160,46065,46066,62451,46068,45829,46054,13303,50168,46329,45818,50171,46076,46077,46078,1024,1052,50211,50226,1024,1116,50278,50295,1028,1180,50602,50107,1036,1244,54510,46335,50176,5137,5139,5138,50196,5141,5158,5127,50248,5145,5402,4891,50380,5149,5150,5151,50177,9250,9251,9252,50213,9254,9271,9240,50249,9258,9515,9004,50381,9262,9263,9248,50191,13360,13361,13362,50227,13364,13381,13350,50247,13368,13625,13114,50379,13372,13373,13374,17408,17601,50243,50242,17476,17477,50246,50247,17480,17609,50506,49995,17612,17485,54350,46159,50176,21585,21587,21586,50260,21589,21606,21575,50248,21593,21850,21339,50380,21597,21598,21599,50176,25713,25715,25714,50276,25717,25718,25719,50248,25721,25978,25467,50380,25725,25726,25727,50176,29793,29795,29794,50292,29797,29798,29799,50248,29801,30058,29547,50380,29805,29806,29807,32896,35905,50243,50242,34948,35909,50246,50247,33928,35913,50506,49995,35980,35917,54350,46159,50176,38033,38035,38034,50324,38037,38054,38023,50248,38041,38298,37787,50380,38045,38046,38047,50432,42401,42403,42402,50596,42405,42422,42391,50504,42409,42410,42411,50636,42413,42414,42415,49920,46001,46003,46002,50100,46005,46022,45991,49992,46009,46010,46011,50124,46013,46014,46015,50368,50369,50371,50370,50372,50373,50374,50375,50376,50377,50634,50123,50380,50381,54478,46287,50176,54481,54483,54482,50388,54485,54502,54471,50248,54489,54746,54235,50380,54493,54494,54495,54272,58593,58595,58594,54500,58597,58614,58583,54344,58601,58858,58347,54476,58605,58606,58607,46080,62705,62707,62706,46324,62709,62470,62695,46152,62713,62970,62459,46284,62717,62718,62719,50432,5377,9475,13570,50432,21765,25878,30199,50437,38153,42506,46091,50444,54541,58638,62735,1296,50449,50451,50450,5396,50453,50470,50439,21784,50457,50714,50203,50460,50461,54558,46367,1313,50466,50467,50468,9509,50470,50487,50456,21801,50474,50731,50220,50477,50478,54575,46368,1343,50480,50481,50482,13619,50484,50501,50470,21815,50488,50745,50234,50491,50492,54589,46398,50432,17729,17731,17730,50500,17733,17750,17719,50520,17737,17994,17483,50636,17741,17742,17743,1360,50513,50515,50514,21844,50517,50534,50503,21848,50521,50778,50267,50524,50525,54622,46431,1392,50545,50547,50546,25972,50549,50550,50551,21880,50553,50810,50299,50556,50557,54654,46463,1376,50529,50531,50530,30052,50533,50534,50535,21864,50537,50794,50283,50540,50541,54638,46447,49280,21889,21891,21890,51332,21893,21910,21879,50568,21897,22154,21643,52364,21901,21902,21903,1424,50577,50579,50578,38292,50581,50598,50567,21912,50585,50842,50331,50588,50589,54686,46495,1696,50849,50851,50850,42660,50853,50870,50839,22184,50857,50858,50859,50860,50861,54958,46767,1200,50353,50355,50354,46260,50357,50374,50343,21688,50361,50362,50363,50364,50365,54462,46271,1472,50625,50627,50626,50628,50629,50646,50615,21960,50633,50890,50379,50636,50637,50638,50639,1488,50641,50643,50642,54740,50645,50662,50631,21976,50649,50906,50395,50652,50653,54750,46559,1504,50657,54755,54754,58852,54757,54774,54743,21992,50665,55018,54507,50668,54765,54766,54767,1520,50673,46579,46578,62964,46581,46342,46567,22008,50681,46842,46331,50684,46589,46590,46591,50704,5649,9747,13842,50704,22037,26134,30231,50710,38425,42778,46363,50716,54813,58910,63007,1568,50721,50723,50722,5668,50725,50726,50727,26152,50729,50986,50475,50732,50733,54830,46639,1585,50738,50739,50740,9781,50742,50743,50744,26169,50746,51003,50492,50749,50750,54847,46640,1615,50752,50753,50754,13891,50756,50757,50758,26183,50760,51017,50506,50763,50764,54861,46670,50768,18001,18003,18002,50772,18005,18006,18007,50776,18009,18266,17755,50780,18013,18014,18015,1632,50785,50787,50786,22116,50789,50790,50791,26216,50793,51050,50539,50796,50797,54894,46703,1648,50801,50803,50802,26228,50805,50806,50807,26232,50809,51066,50555,50812,50813,54910,46719,1664,50817,50819,50818,30340,50821,50822,50823,26248,50825,51082,50571,50828,50829,54926,46735,49296,26257,26259,26258,51348,26261,26262,26263,50840,26265,26522,26011,52380,26269,26270,26271,1696,50849,50851,50850,38564,50853,50854,50855,26280,50857,51114,50603,50860,50861,54958,46767,1968,51121,51123,51122,42932,51125,51126,51127,26552,51129,51130,51131,51132,51133,55230,47039,1472,50625,50627,50626,46532,50629,50630,50631,26056,50633,50634,50635,50636,50637,54734,46543,1744,50897,50899,50898,50900,50901,50902,50903,26328,50905,51162,50651,50908,50909,50910,50911,1760,50913,50915,50914,55012,50917,50918,50919,26344,50921,51178,50667,50924,50925,55022,46831,1776,50929,55027,55026,59124,55029,55030,55031,26360,50937,55290,54779,50940,55037,55038,55039,1536,50689,46595,46594,62980,46597,46598,46599,26120,50697,46858,46347,50700,46605,46606,46607,51184,6129,10227,14322,51184,22517,26614,30711,51191,38905,43258,46843,51196,55293,59390,63487,1792,50945,50947,50946,5892,50949,50950,50951,30472,50953,51210,50699,50956,50957,55054,46863,1809,50962,50963,50964,10005,50966,50967,50968,30489,50970,51227,50716,50973,50974,55071,46864,1839,50976,50977,50978,14115,50980,50981,50982,30503,50984,51241,50730,50987,50988,55085,46894,50992,18225,18227,18226,50996,18229,18230,18231,51000,18233,18490,17979,51004,18237,18238,18239,1856,51009,51011,51010,22340,51013,51014,51015,30536,51017,51274,50763,51020,51021,55118,46927,1872,51025,51027,51026,26452,51029,51030,51031,30552,51033,51290,50779,51036,51037,55134,46943,1888,51041,51043,51042,30564,51045,51046,51047,30568,51049,51306,50795,51052,51053,55150,46959,49264,30577,30579,30578,51316,30581,30582,30583,51064,30585,30842,30331,52348,30589,30590,30591,1920,51073,51075,51074,38788,51077,51078,51079,30600,51081,51338,50827,51084,51085,55182,46991,2192,51345,51347,51346,43156,51349,51350,51351,30872,51353,51354,51355,51356,51357,55454,47263,1696,50849,50851,50850,46756,50853,50854,50855,30376,50857,50858,50859,50860,50861,54958,46767,1968,51121,51123,51122,51124,51125,51126,51127,30648,51129,51386,50875,51132,51133,51134,51135,1984,51137,51139,51138,55236,51141,51142,51143,30664,51145,51402,50891,51148,51149,55246,47055,2000,51153,55251,55250,59348,55253,55254,55255,30680,51161,55514,55003,51164,55261,55262,55263,2016,51169,47075,47074,63460,47077,47078,47079,30696,51177,47338,46827,51180,47085,47086,47087,34816,33036,49667,49922,34816,34060,50710,51191,34824,35084,51722,51979,34828,36108,56846,48911,49168,34833,34835,34834,49428,34837,34854,34823,51224,34841,35098,34587,52252,34845,34846,34847,49185,34850,34851,34852,49701,34854,34871,34840,51241,34858,35115,34604,52269,34862,34863,34848,49215,34864,34865,34866,49971,34868,34885,34854,51255,34872,35129,34618,52283,34876,34877,34878,34816,33985,50243,50242,34884,33989,50262,50231,34952,33993,50250,50251,35020,33997,54350,46159,49232,34897,34899,34898,50516,34901,34918,34887,51288,34905,35162,34651,52316,34909,34910,34911,49264,34929,34931,34930,50804,34933,34934,34935,51320,34937,35194,34683,52348,34941,34942,34943,49248,34913,34915,34914,51044,34917,34918,34919,51304,34921,35178,34667,52332,34925,34926,34927,32896,35969,51331,51330,34948,34949,51350,51319,34952,35977,51338,51339,35980,34957,55438,47247,49296,34961,34963,34962,51604,34965,34982,34951,51352,34969,35226,34715,52380,34973,34974,34975,49312,35233,35235,35234,51876,35237,35254,35223,51368,35241,35242,35243,52396,35245,35246,35247,49328,34737,34739,34738,52148,34741,34758,34727,51384,34745,34746,34747,52412,34749,34750,34751,35008,36033,52419,52418,35012,36037,52438,52407,35016,36041,52426,52427,35020,36045,56526,48335,49360,35025,35027,35026,52692,35029,35046,35015,51416,35033,35290,34779,52444,35037,35038,35039,53472,35041,35043,35042,57060,35045,35062,35031,55528,35049,35306,34795,56556,35053,35054,35055,45296,35057,35059,35058,49140,35061,34822,35047,47352,35065,35322,34811,48380,35069,35070,35071,51456,6401,10499,14594,51456,22789,26902,31223,51465,39177,43530,47115,51468,55565,59662,63759,2320,51473,51475,51474,6420,51477,51494,51463,39192,51481,51738,51227,51484,51485,55582,47391,2337,51490,51491,51492,10533,51494,51511,51480,39209,51498,51755,51244,51501,51502,55599,47392,2367,51504,51505,51506,14643,51508,51525,51494,39223,51512,51769,51258,51515,51516,55613,47422,51456,18753,18755,18754,51524,18757,18774,18743,51608,18761,19018,18507,51660,18765,18766,18767,2384,51537,51539,51538,22868,51541,51558,51527,39256,51545,51802,51291,51548,51549,55646,47455,2416,51569,51571,51570,26996,51573,51574,51575,39288,51577,51834,51323,51580,51581,55678,47487,2400,51553,51555,51554,31076,51557,51558,51559,39272,51561,51818,51307,51564,51565,55662,47471,49280,39297,39299,39298,51332,39301,39318,39287,51592,39305,39562,39051,52364,39309,39310,39311,2448,51601,51603,51602,39316,51605,51622,51591,39320,51609,51866,51355,51612,51613,55710,47519,2720,51873,51875,51874,43684,51877,51894,51863,39592,51881,51882,51883,51884,51885,55982,47791,2224,51377,51379,51378,47284,51381,51398,51367,39096,51385,51386,51387,51388,51389,55486,47295,2496,51649,51651,51650,51652,51653,51670,51639,39368,51657,51914,51403,51660,51661,51662,51663,2512,51665,51667,51666,55764,51669,51686,51655,39384,51673,51930,51419,51676,51677,55774,47583,2528,51681,55779,55778,59876,55781,55798,55767,39400,51689,56042,55531,51692,55789,55790,55791,2544,51697,47603,47602,63988,47605,47366,47591,39416,51705,47866,47355,51708,47613,47614,47615,51968,6913,11011,15106,51968,23301,27414,31735,51978,39689,43786,47883,51980,56077,60174,64271,2832,51985,51987,51986,6932,51989,52006,51975,43800,51993,51994,51995,51996,51997,56094,47903,2849,52002,52003,52004,11045,52006,52023,51992,43817,52010,52011,52012,52013,52014,56111,47904,2879,52016,52017,52018,15155,52020,52037,52006,43831,52024,52025,52026,52027,52028,56125,47934,51968,19265,19267,19266,52036,19269,19286,19255,52136,19273,19274,19275,52172,19277,19278,19279,2896,52049,52051,52050,23380,52053,52070,52039,43864,52057,52058,52059,52060,52061,56158,47967,2928,52081,52083,52082,27508,52085,52086,52087,43896,52089,52090,52091,52092,52093,56190,47999,2912,52065,52067,52066,31588,52069,52070,52071,43880,52073,52074,52075,52076,52077,56174,47983,52096,43905,43907,43906,52100,43909,43926,43895,52104,43913,43914,43915,52108,43917,43918,43919,2960,52113,52115,52114,39828,52117,52134,52103,43928,52121,52122,52123,52124,52125,56222,48031,2976,52129,52131,52130,43940,52133,52150,52119,43944,52137,52138,52139,52140,52141,56238,48047,2992,52145,52147,52146,48052,52149,52166,52135,43960,52153,52154,52155,52156,52157,56254,48063,3008,52161,52163,52162,52164,52165,52182,52151,43976,52169,52170,52171,52172,52173,52174,52175,3024,52177,52179,52178,56276,52181,52198,52167,43992,52185,52186,52187,52188,52189,56286,48095,3040,52193,56291,56290,60388,56293,56310,56279,44008,52201,56298,56299,52204,56301,56302,56303,3056,52209,48115,48114,64500,48117,47878,48103,44024,52217,48122,48123,52220,48125,48126,48127,51712,6657,10755,14850,51712,23045,27158,31479,51723,39433,43530,47627,51724,55821,59918,64015,2576,51729,51731,51730,6676,51733,51750,51719,47640,51737,51738,51739,51740,51741,55838,47647,2593,51746,51747,51748,10789,51750,51767,51736,47657,51754,51755,51756,51757,51758,55855,47648,2623,51760,51761,51762,14899,51764,51781,51750,47671,51768,51769,51770,51771,51772,55869,47678,51712,19009,19011,19010,51780,19013,19030,18999,51896,19017,19018,19019,51916,19021,19022,19023,2640,51793,51795,51794,23124,51797,51814,51783,47704,51801,51802,51803,51804,51805,55902,47711,2672,51825,51827,51826,27252,51829,51830,51831,47736,51833,51834,51835,51836,51837,55934,47743,2656,51809,51811,51810,31332,51813,51814,51815,47720,51817,51818,51819,51820,51821,55918,47727,51840,47745,47747,47746,51844,47749,47766,47735,51848,47753,47754,47755,51852,47757,47758,47759,2704,51857,51859,51858,39572,51861,51878,51847,47768,51865,51866,51867,51868,51869,55966,47775,2720,51873,51875,51874,43684,51877,51894,51863,47784,51881,51882,51883,51884,51885,55982,47791,2736,51889,51891,51890,47796,51893,51910,51879,47800,51897,51898,51899,51900,51901,55998,47807,2752,51905,51907,51906,51908,51909,51926,51895,47816,51913,51914,51915,51916,51917,51918,51919,2768,51921,51923,51922,56020,51925,51942,51911,47832,51929,51930,51931,51932,51933,56030,47839,2784,51937,56035,56034,60132,56037,56054,56023,47848,51945,56042,56043,51948,56045,56046,56047,2800,51953,47859,47858,64244,47861,47622,47847,47864,51961,47866,47867,51964,47869,47870,47871,52224,52236,11267,15362,52224,23564,27670,31991,52236,52236,44298,47883,52236,56332,60430,64527,3088,52241,52243,52242,7188,52245,52262,52231,52248,52249,52506,51995,52252,52253,52254,52255,3105,52258,52259,52260,11301,52262,52279,52248,52265,52266,52523,52012,52269,52270,52271,52256,3135,52272,52273,52274,15411,52276,52293,52262,52279,52280,52537,52026,52283,52284,52285,52286,52224,52417,19523,19522,52292,19653,19542,19511,52424,52425,19786,19275,52428,19661,19534,19535,3152,52305,52307,52306,23636,52309,52326,52295,52312,52313,52570,52059,52316,52317,52318,52319,3184,52337,52339,52338,27764,52341,52342,52343,52344,52345,52602,52091,52348,52349,52350,52351,3168,52321,52323,52322,31844,52325,52326,52327,52328,52329,52586,52075,52332,52333,52334,52335,49280,52353,52355,52354,51332,52357,52374,52343,52360,52361,52618,52107,52364,52365,52366,52367,3216,52369,52371,52370,40084,52373,52390,52359,52376,52377,52634,52123,52380,52381,52382,52383,3488,52641,52643,52642,44452,52645,52662,52631,52648,52649,52650,52651,52652,52653,52654,52655,2992,52145,52147,52146,48052,52149,52166,52135,52152,52153,52154,52155,52156,52157,52158,52159,52416,52417,52419,52418,52420,52421,52438,52407,52424,52425,52682,52171,52428,52429,52430,52431,3280,52433,52435,52434,56532,52437,52454,52423,52440,52441,52698,52187,52444,52445,52446,52447,3296,52449,52451,52450,60644,52453,52470,52439,52456,52457,52714,52203,52460,52461,52462,52463,3312,52465,52467,52466,64756,52469,52230,52455,52472,52473,52730,52219,52476,52477,52478,52479,52480,7425,11523,15618,52480,23813,27926,32247,52493,40201,44554,48139,52492,56589,60686,64783,3344,52497,52499,52498,7444,52501,52518,52487,56600,52505,52762,52251,52508,52509,56606,48415,3361,52514,52515,52516,11557,52518,52535,52504,56617,52522,52779,52268,52525,52526,56623,48416,3391,52528,52529,52530,15667,52532,52549,52518,56631,52536,52793,52282,52539,52540,56637,48446,52480,19777,19779,19778,52548,19781,19798,19767,52696,19785,20042,19531,52684,19789,19790,19791,3408,52561,52563,52562,23892,52565,52582,52551,56664,52569,52826,52315,52572,52573,56670,48479,3440,52593,52595,52594,28020,52597,52598,52599,56696,52601,52858,52347,52604,52605,56702,48511,3424,52577,52579,52578,32100,52581,52582,52583,56680,52585,52842,52331,52588,52589,56686,48495,49280,56705,56707,56706,51332,56709,56726,56695,52616,56713,56970,56459,52364,56717,56718,56719,3472,52625,52627,52626,40340,52629,52646,52615,56728,52633,52890,52379,52636,52637,56734,48543,3744,52897,52899,52898,44708,52901,52918,52887,57000,52905,52906,52907,52908,52909,57006,48815,3248,52401,52403,52402,48308,52405,52422,52391,56504,52409,52410,52411,52412,52413,56510,48319,3520,52673,52675,52674,52676,52677,52694,52663,56776,52681,52938,52427,52684,52685,52686,52687,3536,52689,52691,52690,56788,52693,52710,52679,56792,52697,52954,52443,52700,52701,56798,48607,3552,52705,56803,56802,60900,56805,56822,56791,56808,52713,57066,56555,52716,56813,56814,56815,3568,52721,48627,48626,65012,48629,48390,48615,56824,52729,48890,48379,52732,48637,48638,48639,56832,7681,11779,15874,56832,24069,28182,32503,56846,40457,44810,48395,56844,56845,60942,65039,3600,56849,56851,56850,7700,56853,56870,56839,60952,56857,57114,56603,52764,56861,56862,56863,3617,52770,56867,56868,11813,56870,56887,56856,60969,52778,57131,56620,52781,56878,56879,56864,3647,52784,56881,56882,15923,56884,56901,56870,60983,52792,57145,56634,52795,56892,56893,56894,56832,20033,20035,20034,56900,20037,20054,20023,57064,20041,20298,19787,57036,20045,20046,20047,3664,52817,56915,56914,24148,56917,56934,56903,61016,52825,57178,56667,52828,56925,56926,56927,3696,52849,56947,56946,28276,56949,56950,56951,61048,52857,57210,56699,52860,56957,56958,56959,3680,52833,56931,56930,32356,56933,56934,56935,61032,52841,57194,56683,52844,56941,56942,56943,53376,61057,61059,61058,55428,61061,61078,61047,56968,61065,61322,60811,56460,61069,61070,61071,3728,56977,56979,56978,40596,56981,56998,56967,61080,56985,57242,56731,52892,56989,56990,56991,4000,53153,57251,57250,44964,57253,57270,57239,61352,53161,57258,57259,53164,57261,57262,57263,3504,52657,56755,56754,48564,56757,56774,56743,60856,52665,56762,56763,52668,56765,56766,56767,57024,52929,52931,52930,57028,52933,52950,52919,57032,52937,53194,52683,57036,52941,52942,52943,3792,52945,57043,57042,57044,57045,57062,57031,61144,52953,57306,56795,52956,57053,57054,57055,3808,52961,57059,57058,61156,57061,57078,57047,61160,52969,57322,56811,52972,57069,57070,57071,3824,52977,57075,57074,65268,57077,56838,57063,61176,52985,57338,56827,52988,57085,57086,57087,48896,7937,12035,16130,48896,24325,28438,32759,48911,40713,40970,48651,48908,57101,61198,65295,3856,48913,48915,48914,7956,48917,48934,48903,65304,48921,45082,48667,53020,48925,48926,48927,3873,53026,48931,48932,12069,48934,48951,48920,65321,53034,45099,48684,53037,48942,48943,48928,3903,53040,48945,48946,16179,48948,48965,48934,65335,53048,45113,48698,53051,48956,48957,48958,48896,20289,20291,20290,48964,20293,20310,20279,49144,20297,16458,20043,49100,20301,20302,20303,3920,53073,48979,48978,24404,48981,48998,48967,65368,53081,45146,48731,53084,48989,48990,48991,3952,53105,49011,49010,28532,49013,49014,49015,65400,53113,45178,48763,53116,49021,49022,49023,3936,53089,48995,48994,32612,48997,48998,48999,65384,53097,45162,48747,53100,49005,49006,49007,45184,65409,65411,65410,47236,65413,65430,65399,49032,65417,61578,65163,48268,65421,65422,65423,3984,49041,49043,49042,40852,49045,49062,49031,65432,49049,45210,48795,53148,49053,49054,49055,160,49313,45219,45218,41124,45221,45238,45207,61608,49321,45226,45227,49324,45229,45230,45231,3760,52913,48819,48818,48820,48821,48838,48807,65208,52921,48826,48827,52924,48829,48830,48831,49088,53185,53187,53186,49092,53189,53206,53175,49096,53193,49354,52939,49100,53197,53198,53199,4048,53201,49107,49106,57300,49109,49126,49095,65496,53209,45274,48859,53212,49117,49118,49119,4064,53217,49123,49122,61412,49125,49142,49111,65512,53225,45290,48875,53228,49133,49134,49135,4080,53233,49139,49138,65524,49141,48902,49127,65528,53241,45306,48891,53244,49149,49150,49151,53248,53249,53250,53251,53248,53253,53270,53495,53248,53257,53514,57099,53261,53261,57358,49167,53264,53265,53267,53266,53265,53269,53286,53255,53264,53273,53530,57115,53277,53277,57374,49183,53280,53281,53283,53284,53282,53286,53303,53272,53280,53289,53547,57132,53293,53294,57391,49184,53296,53297,53297,53298,53299,53300,53317,53286,53296,53305,53561,57146,53309,53308,57405,49214,53248,53316,53316,53316,53316,53316,53332,53300,53256,53316,53572,57156,53468,53316,57412,49220,53328,53329,53331,53330,53333,53333,53350,53319,53328,53337,53594,57179,53341,53341,57438,49247,53360,53361,53363,53362,53366,53365,53366,53367,53360,53369,53626,57211,53373,53373,57470,49279,53344,53345,53347,53346,53351,53349,53350,53351,53344,53353,53610,57195,53357,53357,57454,49263,53376,53376,53376,53376,55428,53376,53392,53360,53384,53376,53632,57216,56716,53376,57472,49280,53392,53393,53395,53394,53401,53397,53414,53383,53392,53401,53658,57243,53405,53405,57502,49311,53664,53665,53667,53666,53674,53669,53686,53655,53664,53673,53674,53675,53677,53677,57774,49583,57264,57265,57267,57266,57275,57269,57286,57255,57264,57273,57274,57275,57277,57277,61374,53183,192,53453,53453,53453,49348,53453,53469,53437,200,53453,53709,57293,53452,53453,57549,49357,53456,53457,53459,53458,53469,53461,53478,53447,53456,53465,53722,57307,53469,53469,57566,49375,57568,57569,57571,57570,57582,57573,57590,57559,57568,57577,57834,61419,57581,57581,57582,57583,49392,49393,49395,49394,49407,49397,49158,49383,49392,49401,49658,53243,49405,49405,49406,49407,53504,53505,53507,53506,53504,53509,53526,53751,53505,53513,53770,53259,53517,53517,57614,49423,53520,53521,53523,53522,53524,53525,53542,53511,53528,53529,53786,53275,53532,53533,57630,49439,53537,53538,53539,53540,53541,53542,53559,53528,53545,53546,53803,53292,53549,53550,57647,49440,53567,53552,53553,53554,53555,53556,53573,53542,53559,53560,53817,53306,53563,53564,57661,49470,53504,53569,53571,53570,53572,53573,53590,53559,53528,53577,53834,53323,53724,53581,57678,49487,53584,53585,53587,53586,53588,53589,53606,53575,53592,53593,53850,53339,53596,53597,57694,49503,53616,53617,53619,53618,53620,53621,53622,53623,53624,53625,53882,53371,53628,53629,57726,49535,53600,53601,53603,53602,53604,53605,53606,53607,53608,53609,53866,53355,53612,53613,57710,49519,53376,53633,53635,53634,55428,53637,53654,53623,53640,53641,53898,53387,56716,53645,57742,49551,53648,53649,53651,53650,53652,53653,53670,53639,53656,53657,53914,53403,53660,53661,57758,49567,53920,53921,53923,53922,53924,53925,53942,53911,53928,53929,53930,53931,53932,53933,58030,49839,53424,53425,53427,53426,53428,53429,53446,53415,53432,53433,53434,53435,53436,53437,57534,49343,448,53697,53699,53698,49604,53701,53718,53687,4552,53705,53962,53451,53708,53709,57806,49615,53712,53713,53715,53714,53716,53717,53734,53703,53720,53721,53978,53467,53724,53725,57822,49631,57824,57825,57827,57826,57828,57829,57846,57815,57832,57833,58090,57579,57836,57837,57838,57839,49648,49649,49651,49650,49652,49653,49414,49639,49656,49657,49914,49403,49660,49661,49662,49663,53761,53762,53763,53764,53765,53766,53783,54008,53769,53770,54027,53516,53773,53774,57871,49664,53777,53778,53779,53780,53781,53782,53799,53768,53785,53786,54043,53532,53789,53790,57887,49680,53793,53794,53795,53796,53797,53798,53815,53784,53801,53802,54059,53548,53805,53806,57903,49696,53809,53810,53811,53812,53813,53814,53831,53800,53817,53818,54075,53564,53821,53822,57919,49712,53761,53826,53827,53828,53829,53830,53847,53816,53801,53834,54091,53580,53981,53838,57935,49728,53841,53842,53843,53844,53845,53846,53863,53832,53849,53850,54107,53596,53853,53854,57951,49744,53873,53874,53875,53876,53877,53878,53879,53880,53881,53882,54139,53628,53885,53886,57983,49776,53857,53858,53859,53860,53861,53862,53863,53864,53865,53866,54123,53612,53869,53870,57967,49760,53377,53890,53891,53892,55429,53894,53911,53880,53897,53898,54155,53644,56717,53902,57999,49792,53905,53906,53907,53908,53909,53910,53927,53896,53913,53914,54171,53660,53917,53918,58015,49808,54177,54178,54179,54180,54181,54182,54199,54168,54185,54186,54187,54188,54189,54190,58287,50080,53681,53682,53683,53684,53685,53686,53703,53672,53689,53690,53691,53692,53693,53694,57791,49584,705,53954,53955,53956,49861,53958,53975,53944,8905,53962,54219,53708,53965,53966,58063,49856,53969,53970,53971,53972,53973,53974,53991,53960,53977,53978,54235,53724,53981,53982,58079,49872,58081,58082,58083,58084,58085,58086,58103,58072,58089,58090,58347,57836,58093,58094,58095,58080,49905,49906,49907,49908,49909,49910,49671,49896,49913,49914,50171,49660,49917,49918,49919,49904,54031,54016,54017,54018,54019,54020,54037,54262,54023,54024,54281,53770,54027,54028,58125,49934,54047,54032,54033,54034,54035,54036,54053,54022,54039,54040,54297,53786,54043,54044,58141,49950,54063,54048,54049,54050,54051,54052,54069,54038,54055,54056,54313,53802,54059,54060,58157,49966,54079,54064,54065,54066,54067,54068,54085,54054,54071,54072,54329,53818,54075,54076,58173,49982,54031,54080,54081,54082,54083,54084,54101,54070,54071,54088,54345,53834,54235,54092,58189,49998,54111,54096,54097,54098,54099,54100,54117,54086,54103,54104,54361,53850,54107,54108,58205,50014,54143,54128,54129,54130,54131,54132,54133,54134,54135,54136,54393,53882,54139,54140,58237,50046,54127,54112,54113,54114,54115,54116,54117,54118,54119,54120,54377,53866,54123,54124,58221,50030,53391,54144,54145,54146,55427,54148,54165,54134,54151,54152,54409,53898,56715,54156,58253,50062,54175,54160,54161,54162,54163,54164,54181,54150,54167,54168,54425,53914,54171,54172,58269,50078,54447,54432,54433,54434,54435,54436,54453,54422,54439,54440,54441,54442,54443,54444,58541,50350,53951,53936,53937,53938,53939,53940,53957,53926,53943,53944,53945,53946,53947,53948,58045,49854,975,54208,54209,54210,50115,54212,54229,54198,13255,54216,54473,53962,54219,54220,58317,50126,54239,54224,54225,54226,54227,54228,54245,54214,54231,54232,54489,53978,54235,54236,58333,50142,58351,58336,58337,58338,58339,58340,58357,58326,58343,58344,58601,58090,58347,58348,58349,58350,50175,50160,50161,50162,50163,50164,49925,50150,50167,50168,50425,49914,50171,50172,50173,50174,54272,54289,54307,54322,54272,54357,54374,54391,54276,54425,54698,54203,54285,54493,58606,50431,54272,54289,54291,54290,54292,54293,54310,54279,54344,54297,54554,54043,54492,54301,58398,50207,54273,54306,54307,54308,54309,54310,54327,54296,54345,54314,54571,54060,54493,54318,58415,50208,54287,54320,54321,54322,54323,54324,54341,54310,54343,54328,54585,54074,54491,54332,58429,50238,54272,54337,54339,54338,54340,54341,54342,54343,54344,54345,54602,54091,54492,54349,58446,50255,54272,54353,54355,54354,54356,54357,54374,54343,54344,54361,54618,54107,54492,54365,58462,50271,54272,54369,54387,54386,54372,54389,54390,54391,54344,54377,54650,54139,54492,54397,58494,50303,54272,54385,54371,54370,54388,54373,54374,54375,54344,54393,54634,54123,54492,54381,58478,50287,53376,54337,54339,54338,55428,54341,54342,54343,54408,54345,54602,54091,56716,54349,58446,50255,54272,54417,54419,54418,54420,54421,54438,54407,54344,54425,54682,54171,54492,54429,58526,50335,54528,54689,54691,54690,54692,54693,54710,54679,54600,54697,54698,54699,54748,54701,58798,50607,54016,54193,54195,54194,54196,54197,54214,54183,54088,54201,54202,54203,54236,54205,58302,50111,1216,54481,54483,54482,50372,54485,54486,54487,17608,54489,54746,54235,54476,54493,58590,50399,54272,54481,54483,54482,54484,54485,54502,54471,54344,54489,54746,54235,54492,54493,58590,50399,58368,58593,58595,58594,58596,58597,58614,58583,58440,58601,58858,58347,58588,58605,58606,58607,50176,50417,50419,50418,50420,50421,50182,50407,50248,50425,50682,50171,50396,50429,50430,50431,54528,54529,54531,54530,54528,54533,54550,54775,54533,54537,54794,54283,54541,54541,58638,50447,54544,54545,54547,54546,54548,54549,54566,54535,54552,54553,54810,54299,54556,54557,58654,50463,54561,54562,54563,54564,54565,54566,54583,54552,54569,54570,54827,54316,54573,54574,58671,50464,54591,54576,54577,54578,54579,54580,54597,54566,54583,54584,54841,54330,54587,54588,58685,50494,54528,54593,54595,54594,54596,54597,54614,54583,54616,54601,54858,54347,54748,54605,58702,50511,54608,54609,54611,54610,54612,54613,54630,54599,54616,54617,54874,54363,54620,54621,58718,50527,54640,54641,54643,54642,54644,54645,54646,54647,54648,54649,54906,54395,54652,54653,58750,50559,54624,54625,54627,54626,54628,54629,54630,54631,54632,54633,54890,54379,54636,54637,58734,50543,53376,54657,54659,54658,55428,54661,54678,54647,54664,54665,54922,54411,56716,54669,58766,50575,54672,54673,54675,54674,54676,54677,54694,54663,54680,54681,54938,54427,54684,54685,58782,50591,54944,54945,54947,54946,54948,54949,54966,54935,54952,54953,54954,54955,54956,54957,59054,50863,54448,54449,54451,54450,54452,54453,54470,54439,54456,54457,54458,54459,54460,54461,58558,50367,1472,54721,54723,54722,50628,54725,54742,54711,21960,54729,54986,54475,54732,54733,58830,50639,54736,54737,54739,54738,54740,54741,54758,54727,54744,54745,55002,54491,54748,54749,58846,50655,58848,58849,58851,58850,58852,58853,58870,58839,58856,58857,59114,58603,58860,58861,58862,58863,50672,50673,50675,50674,50676,50677,50438,50663,50680,50681,50938,50427,50684,50685,50686,50687,54800,54801,54803,54802,54800,54805,54806,54807,54806,54809,55066,54555,54813,54813,58910,50719,54816,54817,54819,54818,54820,54821,54822,54823,54824,54825,55082,54571,54828,54829,58926,50735,54833,54834,54835,54836,54837,54838,54839,54840,54841,54842,55099,54588,54845,54846,58943,50736,54863,54848,54849,54850,54851,54852,54853,54854,54855,54856,55113,54602,54859,54860,58957,50766,54864,54865,54867,54866,54868,54869,54870,54871,54872,54873,55130,54619,54876,54877,58974,50783,54880,54881,54883,54882,54884,54885,54886,54887,54888,54889,55146,54635,54892,54893,58990,50799,54896,54897,54899,54898,54900,54901,54902,54903,54904,54905,55162,54651,54908,54909,59006,50815,54912,54913,54915,54914,54916,54917,54918,54919,54920,54921,55178,54667,54924,54925,59022,50831,53392,54929,54931,54930,55444,54933,54934,54935,54936,54937,55194,54683,56732,54941,59038,50847,54944,54945,54947,54946,54948,54949,54950,54951,54952,54953,55210,54699,54956,54957,59054,50863,55216,55217,55219,55218,55220,55221,55222,55223,55224,55225,55226,55227,55228,55229,59326,51135,54720,54721,54723,54722,54724,54725,54726,54727,54728,54729,54730,54731,54732,54733,58830,50639,1744,54993,54995,54994,50900,54997,54998,54999,26328,55001,55258,54747,55004,55005,59102,50911,55008,55009,55011,55010,55012,55013,55014,55015,55016,55017,55274,54763,55020,55021,59118,50927,59120,59121,59123,59122,59124,59125,59126,59127,59128,59129,59386,58875,59132,59133,59134,59135,50688,50689,50691,50690,50692,50693,50694,50695,50696,50697,50954,50443,50700,50701,50702,50703,55280,55281,55283,55282,55280,55285,55286,55287,55287,55289,55546,55035,55293,55293,59390,51199,55040,55041,55043,55042,55044,55045,55046,55047,55048,55049,55306,54795,55052,55053,59150,50959,55057,55058,55059,55060,55061,55062,55063,55064,55065,55066,55323,54812,55069,55070,59167,50960,55087,55072,55073,55074,55075,55076,55077,55078,55079,55080,55337,54826,55083,55084,59181,50990,55088,55089,55091,55090,55092,55093,55094,55095,55096,55097,55354,54843,55100,55101,59198,51007,55104,55105,55107,55106,55108,55109,55110,55111,55112,55113,55370,54859,55116,55117,59214,51023,55120,55121,55123,55122,55124,55125,55126,55127,55128,55129,55386,54875,55132,55133,59230,51039,55136,55137,55139,55138,55140,55141,55142,55143,55144,55145,55402,54891,55148,55149,59246,51055,53360,55153,55155,55154,55412,55157,55158,55159,55160,55161,55418,54907,56700,55165,59262,51071,55168,55169,55171,55170,55172,55173,55174,55175,55176,55177,55434,54923,55180,55181,59278,51087,55440,55441,55443,55442,55444,55445,55446,55447,55448,55449,55450,55451,55452,55453,59550,51359,54944,54945,54947,54946,54948,54949,54950,54951,54952,54953,54954,54955,54956,54957,59054,50863,1968,55217,55219,55218,51124,55221,55222,55223,30648,55225,55482,54971,55228,55229,59326,51135,55232,55233,55235,55234,55236,55237,55238,55239,55240,55241,55498,54987,55244,55245,59342,51151,59344,59345,59347,59346,59348,59349,59350,59351,59352,59353,59610,59099,59356,59357,59358,59359,51168,51169,51171,51170,51172,51173,51174,51175,51176,51177,51434,50923,51180,51181,51182,51183,55296,53505,53763,54018,55296,54533,54806,55287,55304,55561,55818,56075,55309,56589,60942,53007,53264,55313,55315,55314,53524,55317,55334,55303,55320,55321,55578,55067,56604,55325,59422,51231,53281,55330,55331,55332,53797,55334,55351,55320,55337,55338,55595,55084,56621,55342,59439,51232,53311,55344,55345,55346,54067,55348,55365,55334,55351,55352,55609,55098,56635,55356,59453,51262,55296,54337,54339,54338,55364,54341,54358,54327,55432,54345,54346,54347,55516,54349,58446,50255,53328,55377,55379,55378,54612,55381,55398,55367,55384,55385,55642,55131,56668,55389,59486,51295,53360,55409,55411,55410,54900,55413,55414,55415,55416,55417,55674,55163,56700,55421,59518,51327,53344,55393,55395,55394,55140,55397,55398,55399,55400,55401,55658,55147,56684,55405,59502,51311,53376,55425,55427,55426,55428,55429,55446,55415,55432,55433,55434,55435,56716,55437,59534,51343,53392,55441,55443,55442,55700,55445,55462,55431,55448,55449,55706,55195,56732,55453,59550,51359,53408,55457,55715,55714,55972,55717,55734,55703,55464,55465,55722,55723,56748,55725,59822,51631,53424,55473,55219,55218,56244,55221,55238,55207,55480,55481,55226,55227,56764,55229,59326,51135,2240,56769,56771,56770,51396,56773,56790,56759,35016,56777,56778,56779,55500,56781,60878,52687,53456,55505,55507,55506,56788,55509,55526,55495,55512,55513,55770,55259,56796,55517,59614,51423,57568,59617,59619,59618,61156,59621,59638,59607,59624,59625,59882,59371,60908,59629,59630,59631,49392,51441,51443,51442,53236,51445,51206,51431,51448,51449,51706,51195,52732,51453,51454,51455,55552,55553,55555,55554,55552,55557,55574,55799,55561,55561,55818,55307,55565,55565,59662,51471,55568,55569,55571,55570,55572,55573,55590,55559,55576,55577,55834,55323,55580,55581,59678,51487,55585,55586,55587,55588,55589,55590,55607,55576,55593,55594,55851,55340,55597,55598,59695,51488,55615,55600,55601,55602,55603,55604,55621,55590,55607,55608,55865,55354,55611,55612,59709,51518,55552,55617,55619,55618,55620,55621,55638,55607,55704,55625,55882,55371,55772,55629,59726,51535,55632,55633,55635,55634,55636,55637,55654,55623,55640,55641,55898,55387,55644,55645,59742,51551,55664,55665,55667,55666,55668,55669,55670,55671,55672,55673,55930,55419,55676,55677,59774,51583,55648,55649,55651,55650,55652,55653,55654,55655,55656,55657,55914,55403,55660,55661,59758,51567,53376,55681,55683,55682,55428,55685,55702,55671,55688,55689,55946,55435,56716,55693,59790,51599,55696,55697,55699,55698,55700,55701,55718,55687,55704,55705,55962,55451,55708,55709,59806,51615,55968,55969,55971,55970,55972,55973,55990,55959,55976,55977,55978,55979,55980,55981,60078,51887,55472,55473,55475,55474,55476,55477,55494,55463,55480,55481,55482,55483,55484,55485,59582,51391,2496,55745,55747,55746,51652,55749,55766,55735,39368,55753,56010,55499,55756,55757,59854,51663,55760,55761,55763,55762,55764,55765,55782,55751,55768,55769,56026,55515,55772,55773,59870,51679,59872,59873,59875,59874,59876,59877,59894,59863,59880,59881,60138,59627,59884,59885,59886,59887,51696,51697,51699,51698,51700,51701,51462,51687,51704,51705,51962,51451,51708,51709,51710,51711,56064,56065,56067,56066,56064,56069,56086,56311,56074,56073,56074,56075,56077,56077,60174,51983,56080,56081,56083,56082,56084,56085,56102,56071,56088,56089,56090,56091,56092,56093,60190,51999,56097,56098,56099,56100,56101,56102,56119,56088,56105,56106,56107,56108,56109,56110,60207,52000,56127,56112,56113,56114,56115,56116,56133,56102,56119,56120,56121,56122,56123,56124,60221,52030,56064,56129,56131,56130,56132,56133,56150,56119,56232,56137,56138,56139,56284,56141,60238,52047,56144,56145,56147,56146,56148,56149,56166,56135,56152,56153,56154,56155,56156,56157,60254,52063,56176,56177,56179,56178,56180,56181,56182,56183,56184,56185,56186,56187,56188,56189,60286,52095,56160,56161,56163,56162,56164,56165,56166,56167,56168,56169,56170,56171,56172,56173,60270,52079,56192,56193,56195,56194,56196,56197,56214,56183,56200,56201,56202,56203,56204,56205,60302,52111,56208,56209,56211,56210,56212,56213,56230,56199,56216,56217,56218,56219,56220,56221,60318,52127,56224,56225,56227,56226,56228,56229,56246,56215,56232,56233,56234,56235,56236,56237,60334,52143,56240,56241,56243,56242,56244,56245,56262,56231,56248,56249,56250,56251,56252,56253,60350,52159,3008,56257,56259,56258,52164,56261,56278,56247,43976,56265,56266,56267,56268,56269,60366,52175,56272,56273,56275,56274,56276,56277,56294,56263,56280,56281,56282,56283,56284,56285,60382,52191,60384,60385,60387,60386,60388,60389,60406,60375,60392,60393,60394,60395,60396,60397,60398,60399,52208,52209,52211,52210,52212,52213,51974,52199,52216,52217,52218,52219,52220,52221,52222,52223,55808,55809,55811,55810,55808,55813,55830,56055,55819,55817,55818,55819,55821,55821,59918,51727,55824,55825,55827,55826,55828,55829,55846,55815,55832,55833,55834,55835,55836,55837,59934,51743,55841,55842,55843,55844,55845,55846,55863,55832,55849,55850,55851,55852,55853,55854,59951,51744,55871,55856,55857,55858,55859,55860,55877,55846,55863,55864,55865,55866,55867,55868,59965,51774,55808,55873,55875,55874,55876,55877,55894,55863,55992,55881,55882,55883,56028,55885,59982,51791,55888,55889,55891,55890,55892,55893,55910,55879,55896,55897,55898,55899,55900,55901,59998,51807,55920,55921,55923,55922,55924,55925,55926,55927,55928,55929,55930,55931,55932,55933,60030,51839,55904,55905,55907,55906,55908,55909,55910,55911,55912,55913,55914,55915,55916,55917,60014,51823,55936,55937,55939,55938,55940,55941,55958,55927,55944,55945,55946,55947,55948,55949,60046,51855,55952,55953,55955,55954,55956,55957,55974,55943,55960,55961,55962,55963,55964,55965,60062,51871,55968,55969,55971,55970,55972,55973,55990,55959,55976,55977,55978,55979,55980,55981,60078,51887,55984,55985,55987,55986,55988,55989,56006,55975,55992,55993,55994,55995,55996,55997,60094,51903,2752,56001,56003,56002,51908,56005,56022,55991,47816,56009,56010,56011,56012,56013,60110,51919,56016,56017,56019,56018,56020,56021,56038,56007,56024,56025,56026,56027,56028,56029,60126,51935,60128,60129,60131,60130,60132,60133,60150,60119,60136,60137,60138,60139,60140,60141,60142,60143,51952,51953,51955,51954,51956,51957,51718,51943,51960,51961,51962,51963,51964,51965,51966,51967,56320,7169,11267,15362,56320,23557,27670,31991,56332,39945,44298,47883,56333,56333,60430,64527,3088,56337,56339,56338,7188,56341,56358,56327,52248,56345,56602,56091,56348,56349,60446,52255,3105,56354,56355,56356,11301,56358,56375,56344,52265,56362,56619,56108,56365,56366,60463,52256,3135,56368,56369,56370,15411,56372,56389,56358,52279,56376,56633,56122,56379,56380,60477,52286,56320,19521,19523,19522,56388,19525,19542,19511,56520,19529,19786,19275,56540,19533,19534,19535,3152,56401,56403,56402,23636,56405,56422,56391,52312,56409,56666,56155,56412,56413,60510,52319,3184,56433,56435,56434,27764,56437,56438,56439,52344,56441,56698,56187,56444,56445,60542,52351,3168,56417,56419,56418,31844,56421,56422,56423,52328,56425,56682,56171,56428,56429,60526,52335,53376,52353,52355,52354,55428,52357,52374,52343,56456,52361,52618,52107,56716,52365,52366,52367,3216,56465,56467,56466,40084,56469,56486,56455,52376,56473,56730,56219,56476,56477,60574,52383,3488,56737,56739,56738,44452,56741,56758,56727,52648,56745,56746,56747,56748,56749,60846,52655,2992,56241,56243,56242,48052,56245,56262,56231,52152,56249,56250,56251,56252,56253,60350,52159,3264,56513,56515,56514,52420,56517,56534,56503,52424,56521,56778,56267,56524,56525,56526,56527,3280,56529,56531,56530,56532,56533,56550,56519,52440,56537,56794,56283,56540,56541,60638,52447,3296,56545,60643,60642,60644,60645,60662,60631,52456,56553,60906,60395,56556,60653,60654,60655,3312,56561,52467,52466,64756,52469,52230,52455,52472,56569,52730,52219,56572,52477,52478,52479,56576,56577,56579,56578,56576,56581,56598,56823,56589,56585,56842,56331,56589,56589,60686,52495,56592,56593,56595,56594,56596,56597,56614,56583,56600,56601,56858,56347,56604,56605,60702,52511,56609,56610,56611,56612,56613,56614,56631,56600,56617,56618,56875,56364,56621,56622,60719,52512,56639,56624,56625,56626,56627,56628,56645,56614,56631,56632,56889,56378,56635,56636,60733,52542,56576,56641,56643,56642,56644,56645,56662,56631,56792,56649,56906,56395,56796,56653,60750,52559,56656,56657,56659,56658,56660,56661,56678,56647,56664,56665,56922,56411,56668,56669,60766,52575,56688,56689,56691,56690,56692,56693,56694,56695,56696,56697,56954,56443,56700,56701,60798,52607,56672,56673,56675,56674,56676,56677,56678,56679,56680,56681,56938,56427,56684,56685,60782,52591,53376,56705,56707,56706,55428,56709,56726,56695,56712,56713,56970,56459,56716,56717,60814,52623,56720,56721,56723,56722,56724,56725,56742,56711,56728,56729,56986,56475,56732,56733,60830,52639,56992,56993,56995,56994,56996,56997,57014,56983,57000,57001,57002,57003,57004,57005,61102,52911,56496,56497,56499,56498,56500,56501,56518,56487,56504,56505,56506,56507,56508,56509,60606,52415,3520,56769,56771,56770,52676,56773,56790,56759,56776,56777,57034,56523,56780,56781,60878,52687,56784,56785,56787,56786,56788,56789,56806,56775,56792,56793,57050,56539,56796,56797,60894,52703,60896,60897,60899,60898,60900,60901,60918,60887,60904,60905,61162,60651,60908,60909,60910,60911,52720,52721,52723,52722,52724,52725,52486,52711,52728,52729,52986,52475,52732,52733,52734,52735,60928,60929,60931,60930,60928,60933,60950,61175,60942,60937,61194,60683,60941,60941,60942,60943,60944,60945,60947,60946,60948,60949,60966,60935,60952,60953,61210,60699,60956,60957,60958,60959,60961,60962,60963,60964,60965,60966,60983,60952,60969,60970,61227,60716,60973,60974,60975,60960,60991,60976,60977,60978,60979,60980,60997,60966,60983,60984,61241,60730,60987,60988,60989,60990,60928,60993,60995,60994,60996,60997,61014,60983,61160,61001,61258,60747,61148,61005,61006,61007,61008,61009,61011,61010,61012,61013,61030,60999,61016,61017,61274,60763,61020,61021,61022,61023,61040,61041,61043,61042,61044,61045,61046,61047,61048,61049,61306,60795,61052,61053,61054,61055,61024,61025,61027,61026,61028,61029,61030,61031,61032,61033,61290,60779,61036,61037,61038,61039,57472,61057,61059,61058,59524,61061,61078,61047,61064,61065,61322,60811,60812,61069,61070,61071,61072,61073,61075,61074,61076,61077,61094,61063,61080,61081,61338,60827,61084,61085,61086,61087,61344,61345,61347,61346,61348,61349,61366,61335,61352,61353,61354,61355,61356,61357,61358,61359,60848,60849,60851,60850,60852,60853,60870,60839,60856,60857,60858,60859,60860,60861,60862,60863,61120,61121,61123,61122,61124,61125,61142,61111,61128,61129,61386,60875,61132,61133,61134,61135,61136,61137,61139,61138,61140,61141,61158,61127,61144,61145,61402,60891,61148,61149,61150,61151,61152,61153,61155,61154,61156,61157,61174,61143,61160,61161,61418,60907,61164,61165,61166,61167,61168,61169,61171,61170,61172,61173,60934,61159,61176,61177,61434,60923,61180,61181,61182,61183,52992,52993,52995,52994,52992,52997,53014,53239,53007,53001,49162,52747,53005,53005,53006,53007,53008,53009,53011,53010,53012,53013,53030,52999,53016,53017,49178,52763,53020,53021,53022,53023,53025,53026,53027,53028,53029,53030,53047,53016,53033,53034,49195,52780,53037,53038,53039,53024,53055,53040,53041,53042,53043,53044,53061,53030,53047,53048,49209,52794,53051,53052,53053,53054,52992,53057,53059,53058,53060,53061,53078,53047,53240,53065,49226,52811,53212,53069,53070,53071,53072,53073,53075,53074,53076,53077,53094,53063,53080,53081,49242,52827,53084,53085,53086,53087,53104,53105,53107,53106,53108,53109,53110,53111,53112,53113,49274,52859,53116,53117,53118,53119,53088,53089,53091,53090,53092,53093,53094,53095,53096,53097,49258,52843,53100,53101,53102,53103,49280,53121,53123,53122,51332,53125,53142,53111,53128,53129,49290,52875,52620,53133,53134,53135,53136,53137,53139,53138,53140,53141,53158,53127,53144,53145,49306,52891,53148,53149,53150,53151,49312,49313,49315,49314,49316,49317,49334,49303,49320,49321,49322,49323,49324,49325,49326,49327,52912,52913,52915,52914,52916,52917,52934,52903,52920,52921,52922,52923,52924,52925,52926,52927,53184,53185,53187,53186,53188,53189,53206,53175,53192,53193,49354,52939,53196,53197,53198,53199,53200,53201,53203,53202,53204,53205,53222,53191,53208,53209,49370,52955,53212,53213,53214,53215,53216,53217,53219,53218,53220,53221,53238,53207,53224,53225,49386,52971,53228,53229,53230,53231,53232,53233,53235,53234,53236,53237,52998,53223,53240,53241,49402,52987,53244,53245,53246,53247,61440,61441,61442,61443,61440,61445,61462,61687,61440,61449,61706,65291,61454,61453,61454,61455,61456,61457,61459,61458,61457,61461,61478,61447,61456,61465,61722,65307,61470,61469,61470,61471,61472,61473,61475,61476,61474,61478,61495,61464,61472,61481,61739,65324,61486,61486,61487,61472,61488,61489,61489,61490,61491,61492,61509,61478,61488,61497,61753,65338,61502,61500,61501,61502,61440,61508,61508,61508,61508,61508,61524,61492,61448,61508,61764,65348,61676,61508,61508,61508,61520,61521,61523,61522,61525,61525,61542,61511,61520,61529,61786,65371,61534,61533,61534,61535,61552,61553,61555,61554,61558,61557,61558,61559,61552,61561,61818,65403,61566,61565,61566,61567,61536,61537,61539,61538,61543,61541,61542,61543,61536,61545,61802,65387,61550,61549,61550,61551,61568,61568,61568,61568,63620,61568,61584,61552,61576,61568,61824,65408,65164,61568,61568,61568,61584,61585,61587,61586,61593,61589,61606,61575,61584,61593,61850,65435,61598,61597,61598,61599,61856,61857,61859,61858,61866,61861,61878,61847,61856,61865,61866,61867,61870,61869,61870,61871,65456,65457,65459,65458,65467,65461,65478,65447,65456,65465,65466,65467,65470,65469,65470,65471,61632,61646,61646,61646,61636,61646,61662,61630,61640,61646,61902,65486,61644,61646,61646,61646,61648,61649,61651,61650,61661,61653,61670,61639,61648,61657,61914,65499,61662,61661,61662,61663,61664,61665,61667,61666,61678,61669,61686,61655,61664,61673,61930,65515,61678,61677,61678,61679,61680,61681,61683,61682,61695,61685,61446,61671,61680,61689,61946,65531,61694,61693,61694,61695,61696,61697,61699,61698,61696,61701,61718,61943,61697,61705,61962,61451,61710,61709,61710,61711,61712,61713,61715,61714,61716,61717,61734,61703,61720,61721,61978,61467,61724,61725,61726,61727,61729,61730,61731,61732,61733,61734,61751,61720,61737,61738,61995,61484,61741,61742,61743,61728,61759,61744,61745,61746,61747,61748,61765,61734,61751,61752,62009,61498,61755,61756,61757,61758,61696,61761,61763,61762,61764,61765,61782,61751,61720,61769,62026,61515,61932,61773,61774,61775,61776,61777,61779,61778,61780,61781,61798,61767,61784,61785,62042,61531,61788,61789,61790,61791,61808,61809,61811,61810,61812,61813,61814,61815,61816,61817,62074,61563,61820,61821,61822,61823,61792,61793,61795,61794,61796,61797,61798,61799,61800,61801,62058,61547,61804,61805,61806,61807,61568,61825,61827,61826,63620,61829,61846,61815,61832,61833,62090,61579,65164,61837,61838,61839,61840,61841,61843,61842,61844,61845,61862,61831,61848,61849,62106,61595,61852,61853,61854,61855,62112,62113,62115,62114,62116,62117,62134,62103,62120,62121,62122,62123,62124,62125,62126,62127,61616,61617,61619,61618,61620,61621,61638,61607,61624,61625,61626,61627,61628,61629,61630,61631,61888,61889,61891,61890,61892,61893,61910,61879,61896,61897,62154,61643,61900,61901,61902,61903,61904,61905,61907,61906,61908,61909,61926,61895,61912,61913,62170,61659,61916,61917,61918,61919,61920,61921,61923,61922,61924,61925,61942,61911,61928,61929,62186,61675,61932,61933,61934,61935,61936,61937,61939,61938,61940,61941,61702,61927,61944,61945,62202,61691,61948,61949,61950,61951,61953,61954,61955,61956,61957,61958,61975,62200,61961,61962,62219,61708,61965,61966,61967,61952,61969,61970,61971,61972,61973,61974,61991,61960,61977,61978,62235,61724,61981,61982,61983,61968,61985,61986,61987,61988,61989,61990,62007,61976,61993,61994,62251,61740,61997,61998,61999,61984,62001,62002,62003,62004,62005,62006,62023,61992,62009,62010,62267,61756,62013,62014,62015,62000,61953,62018,62019,62020,62021,62022,62039,62008,61993,62026,62283,61772,62189,62030,62031,62016,62033,62034,62035,62036,62037,62038,62055,62024,62041,62042,62299,61788,62045,62046,62047,62032,62065,62066,62067,62068,62069,62070,62071,62072,62073,62074,62331,61820,62077,62078,62079,62064,62049,62050,62051,62052,62053,62054,62055,62056,62057,62058,62315,61804,62061,62062,62063,62048,61569,62082,62083,62084,63621,62086,62103,62072,62089,62090,62347,61836,65165,62094,62095,62080,62097,62098,62099,62100,62101,62102,62119,62088,62105,62106,62363,61852,62109,62110,62111,62096,62369,62370,62371,62372,62373,62374,62391,62360,62377,62378,62379,62380,62381,62382,62383,62368,61873,61874,61875,61876,61877,61878,61895,61864,61881,61882,61883,61884,61885,61886,61887,61872,62145,62146,62147,62148,62149,62150,62167,62136,62153,62154,62411,61900,62157,62158,62159,62144,62161,62162,62163,62164,62165,62166,62183,62152,62169,62170,62427,61916,62173,62174,62175,62160,62177,62178,62179,62180,62181,62182,62199,62168,62185,62186,62443,61932,62189,62190,62191,62176,62193,62194,62195,62196,62197,62198,61959,62184,62201,62202,62459,61948,62205,62206,62207,62192,62223,62208,62209,62210,62211,62212,62229,62454,62215,62216,62473,61962,62219,62220,62221,62222,62239,62224,62225,62226,62227,62228,62245,62214,62231,62232,62489,61978,62235,62236,62237,62238,62255,62240,62241,62242,62243,62244,62261,62230,62247,62248,62505,61994,62251,62252,62253,62254,62271,62256,62257,62258,62259,62260,62277,62246,62263,62264,62521,62010,62267,62268,62269,62270,62223,62272,62273,62274,62275,62276,62293,62262,62263,62280,62537,62026,62443,62284,62285,62286,62303,62288,62289,62290,62291,62292,62309,62278,62295,62296,62553,62042,62299,62300,62301,62302,62335,62320,62321,62322,62323,62324,62325,62326,62327,62328,62585,62074,62331,62332,62333,62334,62319,62304,62305,62306,62307,62308,62309,62310,62311,62312,62569,62058,62315,62316,62317,62318,61583,62336,62337,62338,63619,62340,62357,62326,62343,62344,62601,62090,65163,62348,62349,62350,62367,62352,62353,62354,62355,62356,62373,62342,62359,62360,62617,62106,62363,62364,62365,62366,62639,62624,62625,62626,62627,62628,62645,62614,62631,62632,62633,62634,62635,62636,62637,62638,62143,62128,62129,62130,62131,62132,62149,62118,62135,62136,62137,62138,62139,62140,62141,62142,62415,62400,62401,62402,62403,62404,62421,62390,62407,62408,62665,62154,62411,62412,62413,62414,62431,62416,62417,62418,62419,62420,62437,62406,62423,62424,62681,62170,62427,62428,62429,62430,62447,62432,62433,62434,62435,62436,62453,62422,62439,62440,62697,62186,62443,62444,62445,62446,62463,62448,62449,62450,62451,62452,62213,62438,62455,62456,62713,62202,62459,62460,62461,62462,62464,62481,62499,62514,62464,62549,62566,62583,62468,62617,62890,62395,62478,62685,62702,62719,62464,62481,62483,62482,62484,62485,62502,62471,62536,62489,62746,62235,62700,62493,62494,62495,62465,62498,62499,62500,62501,62502,62519,62488,62537,62506,62763,62252,62701,62510,62511,62496,62479,62512,62513,62514,62515,62516,62533,62502,62535,62520,62777,62266,62699,62524,62525,62526,62464,62529,62531,62530,62532,62533,62534,62535,62536,62537,62794,62283,62700,62541,62542,62543,62464,62545,62547,62546,62548,62549,62566,62535,62536,62553,62810,62299,62700,62557,62558,62559,62464,62561,62579,62578,62564,62581,62582,62583,62536,62569,62842,62331,62700,62589,62590,62591,62464,62577,62563,62562,62580,62565,62566,62567,62536,62585,62826,62315,62700,62573,62574,62575,61568,62529,62531,62530,63620,62533,62534,62535,62600,62537,62794,62283,65164,62541,62542,62543,62464,62609,62611,62610,62612,62613,62630,62599,62536,62617,62874,62363,62700,62621,62622,62623,62720,62881,62883,62882,62884,62885,62902,62871,62792,62889,62890,62891,62956,62893,62894,62895,62208,62385,62387,62386,62388,62389,62406,62375,62280,62393,62394,62395,62444,62397,62398,62399,62656,62689,62691,62690,62660,62693,62694,62695,62664,62697,62954,62443,62668,62701,62702,62703,62464,62673,62675,62674,62676,62677,62694,62663,62536,62681,62938,62427,62700,62685,62686,62687,62464,62689,62691,62690,62692,62693,62710,62679,62536,62697,62954,62443,62700,62701,62702,62703,62464,62705,62707,62706,62708,62709,62470,62695,62536,62713,62970,62459,62700,62717,62718,62719,62720,62721,62723,62722,62720,62725,62742,62967,62725,62729,62986,62475,62734,62733,62734,62735,62736,62737,62739,62738,62740,62741,62758,62727,62744,62745,63002,62491,62748,62749,62750,62751,62753,62754,62755,62756,62757,62758,62775,62744,62761,62762,63019,62508,62765,62766,62767,62752,62783,62768,62769,62770,62771,62772,62789,62758,62775,62776,63033,62522,62779,62780,62781,62782,62720,62785,62787,62786,62788,62789,62806,62775,62808,62793,63050,62539,62956,62797,62798,62799,62800,62801,62803,62802,62804,62805,62822,62791,62808,62809,63066,62555,62812,62813,62814,62815,62832,62833,62835,62834,62836,62837,62838,62839,62840,62841,63098,62587,62844,62845,62846,62847,62816,62817,62819,62818,62820,62821,62822,62823,62824,62825,63082,62571,62828,62829,62830,62831,61568,62849,62851,62850,63620,62853,62870,62839,62856,62857,63114,62603,65164,62861,62862,62863,62864,62865,62867,62866,62868,62869,62886,62855,62872,62873,63130,62619,62876,62877,62878,62879,63136,63137,63139,63138,63140,63141,63158,63127,63144,63145,63146,63147,63148,63149,63150,63151,62640,62641,62643,62642,62644,62645,62662,62631,62648,62649,62650,62651,62652,62653,62654,62655,62912,62913,62915,62914,62916,62917,62934,62903,62920,62921,63178,62667,62924,62925,62926,62927,62928,62929,62931,62930,62932,62933,62950,62919,62936,62937,63194,62683,62940,62941,62942,62943,62944,62945,62947,62946,62948,62949,62966,62935,62952,62953,63210,62699,62956,62957,62958,62959,62960,62961,62963,62962,62964,62965,62726,62951,62968,62969,63226,62715,62972,62973,62974,62975,62992,62993,62995,62994,62992,62997,62998,62999,62998,63001,63258,62747,63006,63005,63006,63007,63008,63009,63011,63010,63012,63013,63014,63015,63016,63017,63274,62763,63020,63021,63022,63023,63025,63026,63027,63028,63029,63030,63031,63032,63033,63034,63291,62780,63037,63038,63039,63024,63055,63040,63041,63042,63043,63044,63045,63046,63047,63048,63305,62794,63051,63052,63053,63054,63056,63057,63059,63058,63060,63061,63062,63063,63064,63065,63322,62811,63068,63069,63070,63071,63072,63073,63075,63074,63076,63077,63078,63079,63080,63081,63338,62827,63084,63085,63086,63087,63088,63089,63091,63090,63092,63093,63094,63095,63096,63097,63354,62843,63100,63101,63102,63103,63104,63105,63107,63106,63108,63109,63110,63111,63112,63113,63370,62859,63116,63117,63118,63119,61584,63121,63123,63122,63636,63125,63126,63127,63128,63129,63386,62875,65180,63133,63134,63135,63136,63137,63139,63138,63140,63141,63142,63143,63144,63145,63402,62891,63148,63149,63150,63151,63408,63409,63411,63410,63412,63413,63414,63415,63416,63417,63418,63419,63420,63421,63422,63423,62912,62913,62915,62914,62916,62917,62918,62919,62920,62921,62922,62923,62924,62925,62926,62927,63184,63185,63187,63186,63188,63189,63190,63191,63192,63193,63450,62939,63196,63197,63198,63199,63200,63201,63203,63202,63204,63205,63206,63207,63208,63209,63466,62955,63212,63213,63214,63215,63216,63217,63219,63218,63220,63221,63222,63223,63224,63225,63482,62971,63228,63229,63230,63231,62976,62977,62979,62978,62980,62981,62982,62983,62984,62985,63242,62731,62988,62989,62990,62991,63472,63473,63475,63474,63472,63477,63478,63479,63479,63481,63738,63227,63486,63485,63486,63487,63232,63233,63235,63234,63236,63237,63238,63239,63240,63241,63498,62987,63244,63245,63246,63247,63249,63250,63251,63252,63253,63254,63255,63256,63257,63258,63515,63004,63261,63262,63263,63248,63279,63264,63265,63266,63267,63268,63269,63270,63271,63272,63529,63018,63275,63276,63277,63278,63280,63281,63283,63282,63284,63285,63286,63287,63288,63289,63546,63035,63292,63293,63294,63295,63296,63297,63299,63298,63300,63301,63302,63303,63304,63305,63562,63051,63308,63309,63310,63311,63312,63313,63315,63314,63316,63317,63318,63319,63320,63321,63578,63067,63324,63325,63326,63327,63328,63329,63331,63330,63332,63333,63334,63335,63336,63337,63594,63083,63340,63341,63342,63343,61552,63345,63347,63346,63604,63349,63350,63351,63352,63353,63610,63099,65148,63357,63358,63359,63360,63361,63363,63362,63364,63365,63366,63367,63368,63369,63626,63115,63372,63373,63374,63375,63632,63633,63635,63634,63636,63637,63638,63639,63640,63641,63642,63643,63644,63645,63646,63647,63136,63137,63139,63138,63140,63141,63142,63143,63144,63145,63146,63147,63148,63149,63150,63151,63408,63409,63411,63410,63412,63413,63414,63415,63416,63417,63674,63163,63420,63421,63422,63423,63424,63425,63427,63426,63428,63429,63430,63431,63432,63433,63690,63179,63436,63437,63438,63439,63440,63441,63443,63442,63444,63445,63446,63447,63448,63449,63706,63195,63452,63453,63454,63455,63456,63457,63459,63458,63460,63461,63462,63463,63464,63465,63722,63211,63468,63469,63470,63471,63488,61697,61955,62210,63488,62725,62998,63479,63496,63753,64010,64267,63502,64781,65038,65295,61456,63505,63507,63506,61716,63509,63526,63495,63512,63513,63770,63259,65052,63517,63518,63519,61473,63522,63523,63524,61989,63526,63543,63512,63529,63530,63787,63276,65069,63534,63535,63520,61503,63536,63537,63538,62259,63540,63557,63526,63543,63544,63801,63290,65083,63548,63549,63550,63488,62529,62531,62530,63556,62533,62550,62519,63624,62537,62538,62539,63724,62541,62542,62543,61520,63569,63571,63570,62804,63573,63590,63559,63576,63577,63834,63323,65116,63581,63582,63583,61552,63601,63603,63602,63092,63605,63606,63607,63608,63609,63866,63355,65148,63613,63614,63615,61536,63585,63587,63586,63332,63589,63590,63591,63592,63593,63850,63339,65132,63597,63598,63599,61568,63617,63619,63618,63620,63621,63638,63607,63624,63625,63626,63627,65164,63629,63630,63631,61584,63633,63635,63634,63892,63637,63654,63623,63640,63641,63898,63387,65180,63645,63646,63647,61600,63649,63907,63906,64164,63909,63926,63895,63656,63657,63914,63915,65196,63917,63918,63919,61616,63665,63411,63410,64436,63413,63430,63399,63672,63673,63418,63419,65212,63421,63422,63423,63680,65217,65219,65218,63684,65221,65238,65207,63688,65225,65226,65227,63692,65229,65230,65231,61648,63697,63699,63698,64980,63701,63718,63687,63704,63705,63962,63451,65244,63709,63710,63711,61664,63713,63715,63714,65252,63717,63734,63703,63720,63721,63978,63467,65260,63725,63726,63727,61680,63729,63731,63730,65524,63733,63494,63719,63736,63737,63994,63483,65276,63741,63742,63743,63744,63745,63747,63746,63744,63749,63766,63991,63753,63753,64010,63499,63758,63757,63758,63759,63760,63761,63763,63762,63764,63765,63782,63751,63768,63769,64026,63515,63772,63773,63774,63775,63777,63778,63779,63780,63781,63782,63799,63768,63785,63786,64043,63532,63789,63790,63791,63776,63807,63792,63793,63794,63795,63796,63813,63782,63799,63800,64057,63546,63803,63804,63805,63806,63744,63809,63811,63810,63812,63813,63830,63799,63896,63817,64074,63563,63980,63821,63822,63823,63824,63825,63827,63826,63828,63829,63846,63815,63832,63833,64090,63579,63836,63837,63838,63839,63856,63857,63859,63858,63860,63861,63862,63863,63864,63865,64122,63611,63868,63869,63870,63871,63840,63841,63843,63842,63844,63845,63846,63847,63848,63849,64106,63595,63852,63853,63854,63855,61568,63873,63875,63874,63620,63877,63894,63863,63880,63881,64138,63627,65164,63885,63886,63887,63888,63889,63891,63890,63892,63893,63910,63879,63896,63897,64154,63643,63900,63901,63902,63903,64160,64161,64163,64162,64164,64165,64182,64151,64168,64169,64170,64171,64172,64173,64174,64175,63664,63665,63667,63666,63668,63669,63686,63655,63672,63673,63674,63675,63676,63677,63678,63679,63936,63937,63939,63938,63940,63941,63958,63927,63944,63945,64202,63691,63948,63949,63950,63951,63952,63953,63955,63954,63956,63957,63974,63943,63960,63961,64218,63707,63964,63965,63966,63967,63968,63969,63971,63970,63972,63973,63990,63959,63976,63977,64234,63723,63980,63981,63982,63983,63984,63985,63987,63986,63988,63989,63750,63975,63992,63993,64250,63739,63996,63997,63998,63999,64256,64257,64259,64258,64256,64261,64278,64503,64266,64265,64266,64267,64270,64269,64270,64271,64272,64273,64275,64274,64276,64277,64294,64263,64280,64281,64282,64283,64284,64285,64286,64287,64289,64290,64291,64292,64293,64294,64311,64280,64297,64298,64299,64300,64301,64302,64303,64288,64319,64304,64305,64306,64307,64308,64325,64294,64311,64312,64313,64314,64315,64316,64317,64318,64256,64321,64323,64322,64324,64325,64342,64311,64424,64329,64330,64331,64492,64333,64334,64335,64336,64337,64339,64338,64340,64341,64358,64327,64344,64345,64346,64347,64348,64349,64350,64351,64368,64369,64371,64370,64372,64373,64374,64375,64376,64377,64378,64379,64380,64381,64382,64383,64352,64353,64355,64354,64356,64357,64358,64359,64360,64361,64362,64363,64364,64365,64366,64367,64384,64385,64387,64386,64388,64389,64406,64375,64392,64393,64394,64395,64396,64397,64398,64399,64400,64401,64403,64402,64404,64405,64422,64391,64408,64409,64410,64411,64412,64413,64414,64415,64416,64417,64419,64418,64420,64421,64438,64407,64424,64425,64426,64427,64428,64429,64430,64431,64432,64433,64435,64434,64436,64437,64454,64423,64440,64441,64442,64443,64444,64445,64446,64447,64448,64449,64451,64450,64452,64453,64470,64439,64456,64457,64458,64459,64460,64461,64462,64463,64464,64465,64467,64466,64468,64469,64486,64455,64472,64473,64474,64475,64476,64477,64478,64479,64480,64481,64483,64482,64484,64485,64502,64471,64488,64489,64490,64491,64492,64493,64494,64495,64496,64497,64499,64498,64500,64501,64262,64487,64504,64505,64506,64507,64508,64509,64510,64511,64000,64001,64003,64002,64000,64005,64022,64247,64011,64009,64010,64011,64014,64013,64014,64015,64016,64017,64019,64018,64020,64021,64038,64007,64024,64025,64026,64027,64028,64029,64030,64031,64033,64034,64035,64036,64037,64038,64055,64024,64041,64042,64043,64044,64045,64046,64047,64032,64063,64048,64049,64050,64051,64052,64069,64038,64055,64056,64057,64058,64059,64060,64061,64062,64000,64065,64067,64066,64068,64069,64086,64055,64184,64073,64074,64075,64236,64077,64078,64079,64080,64081,64083,64082,64084,64085,64102,64071,64088,64089,64090,64091,64092,64093,64094,64095,64112,64113,64115,64114,64116,64117,64118,64119,64120,64121,64122,64123,64124,64125,64126,64127,64096,64097,64099,64098,64100,64101,64102,64103,64104,64105,64106,64107,64108,64109,64110,64111,64128,64129,64131,64130,64132,64133,64150,64119,64136,64137,64138,64139,64140,64141,64142,64143,64144,64145,64147,64146,64148,64149,64166,64135,64152,64153,64154,64155,64156,64157,64158,64159,64160,64161,64163,64162,64164,64165,64182,64151,64168,64169,64170,64171,64172,64173,64174,64175,64176,64177,64179,64178,64180,64181,64198,64167,64184,64185,64186,64187,64188,64189,64190,64191,64192,64193,64195,64194,64196,64197,64214,64183,64200,64201,64202,64203,64204,64205,64206,64207,64208,64209,64211,64210,64212,64213,64230,64199,64216,64217,64218,64219,64220,64221,64222,64223,64224,64225,64227,64226,64228,64229,64246,64215,64232,64233,64234,64235,64236,64237,64238,64239,64240,64241,64243,64242,64244,64245,64006,64231,64248,64249,64250,64251,64252,64253,64254,64255,64512,64513,64515,64514,64512,64517,64534,64759,64524,64521,64778,64267,64526,64525,64526,64527,64528,64529,64531,64530,64532,64533,64550,64519,64536,64537,64794,64283,64540,64541,64542,64543,64545,64546,64547,64548,64549,64550,64567,64536,64553,64554,64811,64300,64557,64558,64559,64544,64575,64560,64561,64562,64563,64564,64581,64550,64567,64568,64825,64314,64571,64572,64573,64574,64512,64577,64579,64578,64580,64581,64598,64567,64712,64585,64842,64331,64748,64589,64590,64591,64592,64593,64595,64594,64596,64597,64614,64583,64600,64601,64858,64347,64604,64605,64606,64607,64624,64625,64627,64626,64628,64629,64630,64631,64632,64633,64890,64379,64636,64637,64638,64639,64608,64609,64611,64610,64612,64613,64614,64615,64616,64617,64874,64363,64620,64621,64622,64623,61568,64641,64643,64642,63620,64645,64662,64631,64648,64649,64906,64395,65164,64653,64654,64655,64656,64657,64659,64658,64660,64661,64678,64647,64664,64665,64922,64411,64668,64669,64670,64671,64928,64929,64931,64930,64932,64933,64950,64919,64936,64937,64938,64939,64940,64941,64942,64943,64432,64433,64435,64434,64436,64437,64454,64423,64440,64441,64442,64443,64444,64445,64446,64447,64704,64705,64707,64706,64708,64709,64726,64695,64712,64713,64970,64459,64716,64717,64718,64719,64720,64721,64723,64722,64724,64725,64742,64711,64728,64729,64986,64475,64732,64733,64734,64735,64736,64737,64739,64738,64740,64741,64758,64727,64744,64745,65002,64491,64748,64749,64750,64751,64752,64753,64755,64754,64756,64757,64518,64743,64760,64761,65018,64507,64764,64765,64766,64767,64768,64769,64771,64770,64768,64773,64790,65015,64781,64777,65034,64523,64782,64781,64782,64783,64784,64785,64787,64786,64788,64789,64806,64775,64792,64793,65050,64539,64796,64797,64798,64799,64801,64802,64803,64804,64805,64806,64823,64792,64809,64810,65067,64556,64813,64814,64815,64800,64831,64816,64817,64818,64819,64820,64837,64806,64823,64824,65081,64570,64827,64828,64829,64830,64768,64833,64835,64834,64836,64837,64854,64823,64984,64841,65098,64587,65004,64845,64846,64847,64848,64849,64851,64850,64852,64853,64870,64839,64856,64857,65114,64603,64860,64861,64862,64863,64880,64881,64883,64882,64884,64885,64886,64887,64888,64889,65146,64635,64892,64893,64894,64895,64864,64865,64867,64866,64868,64869,64870,64871,64872,64873,65130,64619,64876,64877,64878,64879,61568,64897,64899,64898,63620,64901,64918,64887,64904,64905,65162,64651,65164,64909,64910,64911,64912,64913,64915,64914,64916,64917,64934,64903,64920,64921,65178,64667,64924,64925,64926,64927,65184,65185,65187,65186,65188,65189,65206,65175,65192,65193,65194,65195,65196,65197,65198,65199,64688,64689,64691,64690,64692,64693,64710,64679,64696,64697,64698,64699,64700,64701,64702,64703,64960,64961,64963,64962,64964,64965,64982,64951,64968,64969,65226,64715,64972,64973,64974,64975,64976,64977,64979,64978,64980,64981,64998,64967,64984,64985,65242,64731,64988,64989,64990,64991,64992,64993,64995,64994,64996,64997,65014,64983,65000,65001,65258,64747,65004,65005,65006,65007,65008,65009,65011,65010,65012,65013,64774,64999,65016,65017,65274,64763,65020,65021,65022,65023,65024,65025,65027,65026,65024,65029,65046,65271,65038,65033,65290,64779,65038,65037,65038,65039,65040,65041,65043,65042,65044,65045,65062,65031,65048,65049,65306,64795,65052,65053,65054,65055,65057,65058,65059,65060,65061,65062,65079,65048,65065,65066,65323,64812,65069,65070,65071,65056,65087,65072,65073,65074,65075,65076,65093,65062,65079,65080,65337,64826,65083,65084,65085,65086,65024,65089,65091,65090,65092,65093,65110,65079,65256,65097,65354,64843,65260,65101,65102,65103,65104,65105,65107,65106,65108,65109,65126,65095,65112,65113,65370,64859,65116,65117,65118,65119,65136,65137,65139,65138,65140,65141,65142,65143,65144,65145,65402,64891,65148,65149,65150,65151,65120,65121,65123,65122,65124,65125,65126,65127,65128,65129,65386,64875,65132,65133,65134,65135,61568,65153,65155,65154,63620,65157,65174,65143,65160,65161,65418,64907,65164,65165,65166,65167,65168,65169,65171,65170,65172,65173,65190,65159,65176,65177,65434,64923,65180,65181,65182,65183,65440,65441,65443,65442,65444,65445,65462,65431,65448,65449,65450,65451,65452,65453,65454,65455,64944,64945,64947,64946,64948,64949,64966,64935,64952,64953,64954,64955,64956,64957,64958,64959,65216,65217,65219,65218,65220,65221,65238,65207,65224,65225,65482,64971,65228,65229,65230,65231,65232,65233,65235,65234,65236,65237,65254,65223,65240,65241,65498,64987,65244,65245,65246,65247,65248,65249,65251,65250,65252,65253,65270,65239,65256,65257,65514,65003,65260,65261,65262,65263,65264,65265,65267,65266,65268,65269,65030,65255,65272,65273,65530,65019,65276,65277,65278,65279,65280,65281,65283,65282,65280,65285,65302,65527,65295,65289,61450,65035,65294,65293,65294,65295,65296,65297,65299,65298,65300,65301,65318,65287,65304,65305,61466,65051,65308,65309,65310,65311,65313,65314,65315,65316,65317,65318,65335,65304,65321,65322,61483,65068,65325,65326,65327,65312,65343,65328,65329,65330,65331,65332,65349,65318,65335,65336,61497,65082,65339,65340,65341,65342,65280,65345,65347,65346,65348,65349,65366,65335,65528,65353,61514,65099,65516,65357,65358,65359,65360,65361,65363,65362,65364,65365,65382,65351,65368,65369,61530,65115,65372,65373,65374,65375,65392,65393,65395,65394,65396,65397,65398,65399,65400,65401,61562,65147,65404,65405,65406,65407,65376,65377,65379,65378,65380,65381,65382,65383,65384,65385,61546,65131,65388,65389,65390,65391,61568,65409,65411,65410,63620,65413,65430,65399,65416,65417,61578,65163,65164,65421,65422,65423,65424,65425,65427,65426,65428,65429,65446,65415,65432,65433,61594,65179,65436,65437,65438,65439,61600,61601,61603,61602,61604,61605,61622,61591,61608,61609,61610,61611,61612,61613,61614,61615,65200,65201,65203,65202,65204,65205,65222,65191,65208,65209,65210,65211,65212,65213,65214,65215,65472,65473,65475,65474,65476,65477,65494,65463,65480,65481,61642,65227,65484,65485,65486,65487,65488,65489,65491,65490,65492,65493,65510,65479,65496,65497,61658,65243,65500,65501,65502,65503,65504,65505,65507,65506,65508,65509,65526,65495,65512,65513,61674,65259,65516,65517,65518,65519,65520,65521,65523,65522,65524,65525,65286,65511,65528,65529,61690,65275,65532,65533,65534,65535,57344,57345,57346,57347,57344,57349,57366,57591,57344,57353,57610,61195,57359,57357,57358,57359,57360,57361,57363,57362,57361,57365,57382,57351,57360,57369,57626,61211,57375,57373,57374,57375,57376,57377,57379,57380,57378,57382,57399,57368,57376,57385,57643,61228,57391,57390,57391,57376,57392,57393,57393,57394,57395,57396,57413,57382,57392,57401,57657,61242,57407,57404,57405,57406,57344,57412,57412,57412,57412,57412,57428,57396,57352,57412,57668,61252,57596,57412,57412,57412,57424,57425,57427,57426,57429,57429,57446,57415,57424,57433,57690,61275,57439,57437,57438,57439,57456,57457,57459,57458,57462,57461,57462,57463,57456,57465,57722,61307,57471,57469,57470,57471,57440,57441,57443,57442,57447,57445,57446,57447,57440,57449,57706,61291,57455,57453,57454,57455,57472,57472,57472,57472,59524,57472,57488,57456,57480,57472,57728,61312,61324,57472,57472,57472,57488,57489,57491,57490,57497,57493,57510,57479,57488,57497,57754,61339,57503,57501,57502,57503,57760,57761,57763,57762,57770,57765,57782,57751,57760,57769,57770,57771,57775,57773,57774,57775,61360,61361,61363,61362,61371,61365,61382,61351,61360,61369,61370,61371,61375,61373,61374,61375,57536,57551,57551,57551,57540,57551,57567,57535,57544,57551,57807,61391,57548,57551,57551,57551,57552,57553,57555,57554,57565,57557,57574,57543,57552,57561,57818,61403,57567,57565,57566,57567,57568,57569,57571,57570,57582,57573,57590,57559,57568,57577,57834,61419,57583,57581,57582,57583,57584,57585,57587,57586,57599,57589,57350,57575,57584,57593,57850,61435,57599,57597,57598,57599,57600,57601,57603,57602,57600,57605,57622,57847,57601,57609,57866,57355,57615,57613,57614,57615,57616,57617,57619,57618,57620,57621,57638,57607,57624,57625,57882,57371,57628,57629,57630,57631,57633,57634,57635,57636,57637,57638,57655,57624,57641,57642,57899,57388,57645,57646,57647,57632,57663,57648,57649,57650,57651,57652,57669,57638,57655,57656,57913,57402,57659,57660,57661,57662,57600,57665,57667,57666,57668,57669,57686,57655,57624,57673,57930,57419,57852,57677,57678,57679,57680,57681,57683,57682,57684,57685,57702,57671,57688,57689,57946,57435,57692,57693,57694,57695,57712,57713,57715,57714,57716,57717,57718,57719,57720,57721,57978,57467,57724,57725,57726,57727,57696,57697,57699,57698,57700,57701,57702,57703,57704,57705,57962,57451,57708,57709,57710,57711,57472,57729,57731,57730,59524,57733,57750,57719,57736,57737,57994,57483,61324,57741,57742,57743,57744,57745,57747,57746,57748,57749,57766,57735,57752,57753,58010,57499,57756,57757,57758,57759,58016,58017,58019,58018,58020,58021,58038,58007,58024,58025,58026,58027,58028,58029,58030,58031,57520,57521,57523,57522,57524,57525,57542,57511,57528,57529,57530,57531,57532,57533,57534,57535,57792,57793,57795,57794,57796,57797,57814,57783,57800,57801,58058,57547,57804,57805,57806,57807,57808,57809,57811,57810,57812,57813,57830,57799,57816,57817,58074,57563,57820,57821,57822,57823,57824,57825,57827,57826,57828,57829,57846,57815,57832,57833,58090,57579,57836,57837,57838,57839,57840,57841,57843,57842,57844,57845,57606,57831,57848,57849,58106,57595,57852,57853,57854,57855,57857,57858,57859,57860,57861,57862,57879,58104,57865,57866,58123,57612,57869,57870,57871,57856,57873,57874,57875,57876,57877,57878,57895,57864,57881,57882,58139,57628,57885,57886,57887,57872,57889,57890,57891,57892,57893,57894,57911,57880,57897,57898,58155,57644,57901,57902,57903,57888,57905,57906,57907,57908,57909,57910,57927,57896,57913,57914,58171,57660,57917,57918,57919,57904,57857,57922,57923,57924,57925,57926,57943,57912,57897,57930,58187,57676,58109,57934,57935,57920,57937,57938,57939,57940,57941,57942,57959,57928,57945,57946,58203,57692,57949,57950,57951,57936,57969,57970,57971,57972,57973,57974,57975,57976,57977,57978,58235,57724,57981,57982,57983,57968,57953,57954,57955,57956,57957,57958,57959,57960,57961,57962,58219,57708,57965,57966,57967,57952,57473,57986,57987,57988,59525,57990,58007,57976,57993,57994,58251,57740,61325,57998,57999,57984,58001,58002,58003,58004,58005,58006,58023,57992,58009,58010,58267,57756,58013,58014,58015,58000,58273,58274,58275,58276,58277,58278,58295,58264,58281,58282,58283,58284,58285,58286,58287,58272,57777,57778,57779,57780,57781,57782,57799,57768,57785,57786,57787,57788,57789,57790,57791,57776,58049,58050,58051,58052,58053,58054,58071,58040,58057,58058,58315,57804,58061,58062,58063,58048,58065,58066,58067,58068,58069,58070,58087,58056,58073,58074,58331,57820,58077,58078,58079,58064,58081,58082,58083,58084,58085,58086,58103,58072,58089,58090,58347,57836,58093,58094,58095,58080,58097,58098,58099,58100,58101,58102,57863,58088,58105,58106,58363,57852,58109,58110,58111,58096,58127,58112,58113,58114,58115,58116,58133,58358,58119,58120,58377,57866,58123,58124,58125,58126,58143,58128,58129,58130,58131,58132,58149,58118,58135,58136,58393,57882,58139,58140,58141,58142,58159,58144,58145,58146,58147,58148,58165,58134,58151,58152,58409,57898,58155,58156,58157,58158,58175,58160,58161,58162,58163,58164,58181,58150,58167,58168,58425,57914,58171,58172,58173,58174,58127,58176,58177,58178,58179,58180,58197,58166,58167,58184,58441,57930,58363,58188,58189,58190,58207,58192,58193,58194,58195,58196,58213,58182,58199,58200,58457,57946,58203,58204,58205,58206,58239,58224,58225,58226,58227,58228,58229,58230,58231,58232,58489,57978,58235,58236,58237,58238,58223,58208,58209,58210,58211,58212,58213,58214,58215,58216,58473,57962,58219,58220,58221,58222,57487,58240,58241,58242,59523,58244,58261,58230,58247,58248,58505,57994,61323,58252,58253,58254,58271,58256,58257,58258,58259,58260,58277,58246,58263,58264,58521,58010,58267,58268,58269,58270,58543,58528,58529,58530,58531,58532,58549,58518,58535,58536,58537,58538,58539,58540,58541,58542,58047,58032,58033,58034,58035,58036,58053,58022,58039,58040,58041,58042,58043,58044,58045,58046,58319,58304,58305,58306,58307,58308,58325,58294,58311,58312,58569,58058,58315,58316,58317,58318,58335,58320,58321,58322,58323,58324,58341,58310,58327,58328,58585,58074,58331,58332,58333,58334,58351,58336,58337,58338,58339,58340,58357,58326,58343,58344,58601,58090,58347,58348,58349,58350,58367,58352,58353,58354,58355,58356,58117,58342,58359,58360,58617,58106,58363,58364,58365,58366,58368,58385,58403,58418,58368,58453,58470,58487,58372,58521,58794,58299,58383,58589,58606,58623,58368,58385,58387,58386,58388,58389,58406,58375,58440,58393,58650,58139,58620,58397,58398,58399,58369,58402,58403,58404,58405,58406,58423,58392,58441,58410,58667,58156,58621,58414,58415,58400,58383,58416,58417,58418,58419,58420,58437,58406,58439,58424,58681,58170,58619,58428,58429,58430,58368,58433,58435,58434,58436,58437,58438,58439,58440,58441,58698,58187,58620,58445,58446,58447,58368,58449,58451,58450,58452,58453,58470,58439,58440,58457,58714,58203,58620,58461,58462,58463,58368,58465,58483,58482,58468,58485,58486,58487,58440,58473,58746,58235,58620,58493,58494,58495,58368,58481,58467,58466,58484,58469,58470,58471,58440,58489,58730,58219,58620,58477,58478,58479,57472,58433,58435,58434,59524,58437,58438,58439,58504,58441,58698,58187,61324,58445,58446,58447,58368,58513,58515,58514,58516,58517,58534,58503,58440,58521,58778,58267,58620,58525,58526,58527,58624,58785,58787,58786,58788,58789,58806,58775,58696,58793,58794,58795,58876,58797,58798,58799,58112,58289,58291,58290,58292,58293,58310,58279,58184,58297,58298,58299,58364,58301,58302,58303,58560,58609,58611,58610,58564,58613,58614,58615,58568,58617,58874,58363,58572,58621,58622,58623,58368,58577,58579,58578,58580,58581,58598,58567,58440,58585,58842,58331,58620,58589,58590,58591,58368,58593,58595,58594,58596,58597,58614,58583,58440,58601,58858,58347,58620,58605,58606,58607,58368,58609,58611,58610,58612,58613,58374,58599,58440,58617,58874,58363,58620,58621,58622,58623,58624,58625,58627,58626,58624,58629,58646,58871,58629,58633,58890,58379,58639,58637,58638,58639,58640,58641,58643,58642,58644,58645,58662,58631,58648,58649,58906,58395,58652,58653,58654,58655,58657,58658,58659,58660,58661,58662,58679,58648,58665,58666,58923,58412,58669,58670,58671,58656,58687,58672,58673,58674,58675,58676,58693,58662,58679,58680,58937,58426,58683,58684,58685,58686,58624,58689,58691,58690,58692,58693,58710,58679,58712,58697,58954,58443,58876,58701,58702,58703,58704,58705,58707,58706,58708,58709,58726,58695,58712,58713,58970,58459,58716,58717,58718,58719,58736,58737,58739,58738,58740,58741,58742,58743,58744,58745,59002,58491,58748,58749,58750,58751,58720,58721,58723,58722,58724,58725,58726,58727,58728,58729,58986,58475,58732,58733,58734,58735,57472,58753,58755,58754,59524,58757,58774,58743,58760,58761,59018,58507,61324,58765,58766,58767,58768,58769,58771,58770,58772,58773,58790,58759,58776,58777,59034,58523,58780,58781,58782,58783,59040,59041,59043,59042,59044,59045,59062,59031,59048,59049,59050,59051,59052,59053,59054,59055,58544,58545,58547,58546,58548,58549,58566,58535,58552,58553,58554,58555,58556,58557,58558,58559,58816,58817,58819,58818,58820,58821,58838,58807,58824,58825,59082,58571,58828,58829,58830,58831,58832,58833,58835,58834,58836,58837,58854,58823,58840,58841,59098,58587,58844,58845,58846,58847,58848,58849,58851,58850,58852,58853,58870,58839,58856,58857,59114,58603,58860,58861,58862,58863,58864,58865,58867,58866,58868,58869,58630,58855,58872,58873,59130,58619,58876,58877,58878,58879,58896,58897,58899,58898,58896,58901,58902,58903,58902,58905,59162,58651,58911,58909,58910,58911,58912,58913,58915,58914,58916,58917,58918,58919,58920,58921,59178,58667,58924,58925,58926,58927,58929,58930,58931,58932,58933,58934,58935,58936,58937,58938,59195,58684,58941,58942,58943,58928,58959,58944,58945,58946,58947,58948,58949,58950,58951,58952,59209,58698,58955,58956,58957,58958,58960,58961,58963,58962,58964,58965,58966,58967,58968,58969,59226,58715,58972,58973,58974,58975,58976,58977,58979,58978,58980,58981,58982,58983,58984,58985,59242,58731,58988,58989,58990,58991,58992,58993,58995,58994,58996,58997,58998,58999,59000,59001,59258,58747,59004,59005,59006,59007,59008,59009,59011,59010,59012,59013,59014,59015,59016,59017,59274,58763,59020,59021,59022,59023,57488,59025,59027,59026,59540,59029,59030,59031,59032,59033,59290,58779,61340,59037,59038,59039,59040,59041,59043,59042,59044,59045,59046,59047,59048,59049,59306,58795,59052,59053,59054,59055,59312,59313,59315,59314,59316,59317,59318,59319,59320,59321,59322,59323,59324,59325,59326,59327,58816,58817,58819,58818,58820,58821,58822,58823,58824,58825,58826,58827,58828,58829,58830,58831,59088,59089,59091,59090,59092,59093,59094,59095,59096,59097,59354,58843,59100,59101,59102,59103,59104,59105,59107,59106,59108,59109,59110,59111,59112,59113,59370,58859,59116,59117,59118,59119,59120,59121,59123,59122,59124,59125,59126,59127,59128,59129,59386,58875,59132,59133,59134,59135,58880,58881,58883,58882,58884,58885,58886,58887,58888,58889,59146,58635,58892,58893,58894,58895,59376,59377,59379,59378,59376,59381,59382,59383,59383,59385,59642,59131,59391,59389,59390,59391,59136,59137,59139,59138,59140,59141,59142,59143,59144,59145,59402,58891,59148,59149,59150,59151,59153,59154,59155,59156,59157,59158,59159,59160,59161,59162,59419,58908,59165,59166,59167,59152,59183,59168,59169,59170,59171,59172,59173,59174,59175,59176,59433,58922,59179,59180,59181,59182,59184,59185,59187,59186,59188,59189,59190,59191,59192,59193,59450,58939,59196,59197,59198,59199,59200,59201,59203,59202,59204,59205,59206,59207,59208,59209,59466,58955,59212,59213,59214,59215,59216,59217,59219,59218,59220,59221,59222,59223,59224,59225,59482,58971,59228,59229,59230,59231,59232,59233,59235,59234,59236,59237,59238,59239,59240,59241,59498,58987,59244,59245,59246,59247,57456,59249,59251,59250,59508,59253,59254,59255,59256,59257,59514,59003,61308,59261,59262,59263,59264,59265,59267,59266,59268,59269,59270,59271,59272,59273,59530,59019,59276,59277,59278,59279,59536,59537,59539,59538,59540,59541,59542,59543,59544,59545,59546,59547,59548,59549,59550,59551,59040,59041,59043,59042,59044,59045,59046,59047,59048,59049,59050,59051,59052,59053,59054,59055,59312,59313,59315,59314,59316,59317,59318,59319,59320,59321,59578,59067,59324,59325,59326,59327,59328,59329,59331,59330,59332,59333,59334,59335,59336,59337,59594,59083,59340,59341,59342,59343,59344,59345,59347,59346,59348,59349,59350,59351,59352,59353,59610,59099,59356,59357,59358,59359,59360,59361,59363,59362,59364,59365,59366,59367,59368,59369,59626,59115,59372,59373,59374,59375,59392,57601,57859,58114,59392,58629,58902,59383,59400,59657,59914,60171,59407,60685,60942,61199,57360,59409,59411,59410,57620,59413,59430,59399,59416,59417,59674,59163,61212,59421,59422,59423,57377,59426,59427,59428,57893,59430,59447,59416,59433,59434,59691,59180,61229,59438,59439,59424,57407,59440,59441,59442,58163,59444,59461,59430,59447,59448,59705,59194,61243,59452,59453,59454,59392,58433,58435,58434,59460,58437,58454,58423,59528,58441,58442,58443,59644,58445,58446,58447,57424,59473,59475,59474,58708,59477,59494,59463,59480,59481,59738,59227,61276,59485,59486,59487,57456,59505,59507,59506,58996,59509,59510,59511,59512,59513,59770,59259,61308,59517,59518,59519,57440,59489,59491,59490,59236,59493,59494,59495,59496,59497,59754,59243,61292,59501,59502,59503,57472,59521,59523,59522,59524,59525,59542,59511,59528,59529,59530,59531,61324,59533,59534,59535,57488,59537,59539,59538,59796,59541,59558,59527,59544,59545,59802,59291,61340,59549,59550,59551,57504,59553,59811,59810,60068,59813,59830,59799,59560,59561,59818,59819,61356,59821,59822,59823,57520,59569,59315,59314,60340,59317,59334,59303,59576,59577,59322,59323,61372,59325,59326,59327,59584,61377,61379,61378,59588,61381,61398,61367,59592,61385,61386,61387,59596,61389,61390,61391,57552,59601,59603,59602,60884,59605,59622,59591,59608,59609,59866,59355,61404,59613,59614,59615,57568,59617,59619,59618,61156,59621,59638,59607,59624,59625,59882,59371,61420,59629,59630,59631,57584,59633,59635,59634,61428,59637,59398,59623,59640,59641,59898,59387,61436,59645,59646,59647,59648,59649,59651,59650,59648,59653,59670,59895,59657,59657,59914,59403,59663,59661,59662,59663,59664,59665,59667,59666,59668,59669,59686,59655,59672,59673,59930,59419,59676,59677,59678,59679,59681,59682,59683,59684,59685,59686,59703,59672,59689,59690,59947,59436,59693,59694,59695,59680,59711,59696,59697,59698,59699,59700,59717,59686,59703,59704,59961,59450,59707,59708,59709,59710,59648,59713,59715,59714,59716,59717,59734,59703,59800,59721,59978,59467,59900,59725,59726,59727,59728,59729,59731,59730,59732,59733,59750,59719,59736,59737,59994,59483,59740,59741,59742,59743,59760,59761,59763,59762,59764,59765,59766,59767,59768,59769,60026,59515,59772,59773,59774,59775,59744,59745,59747,59746,59748,59749,59750,59751,59752,59753,60010,59499,59756,59757,59758,59759,57472,59777,59779,59778,59524,59781,59798,59767,59784,59785,60042,59531,61324,59789,59790,59791,59792,59793,59795,59794,59796,59797,59814,59783,59800,59801,60058,59547,59804,59805,59806,59807,60064,60065,60067,60066,60068,60069,60086,60055,60072,60073,60074,60075,60076,60077,60078,60079,59568,59569,59571,59570,59572,59573,59590,59559,59576,59577,59578,59579,59580,59581,59582,59583,59840,59841,59843,59842,59844,59845,59862,59831,59848,59849,60106,59595,59852,59853,59854,59855,59856,59857,59859,59858,59860,59861,59878,59847,59864,59865,60122,59611,59868,59869,59870,59871,59872,59873,59875,59874,59876,59877,59894,59863,59880,59881,60138,59627,59884,59885,59886,59887,59888,59889,59891,59890,59892,59893,59654,59879,59896,59897,60154,59643,59900,59901,59902,59903,60160,60161,60163,60162,60160,60165,60182,60407,60170,60169,60170,60171,60175,60173,60174,60175,60176,60177,60179,60178,60180,60181,60198,60167,60184,60185,60186,60187,60188,60189,60190,60191,60193,60194,60195,60196,60197,60198,60215,60184,60201,60202,60203,60204,60205,60206,60207,60192,60223,60208,60209,60210,60211,60212,60229,60198,60215,60216,60217,60218,60219,60220,60221,60222,60160,60225,60227,60226,60228,60229,60246,60215,60328,60233,60234,60235,60412,60237,60238,60239,60240,60241,60243,60242,60244,60245,60262,60231,60248,60249,60250,60251,60252,60253,60254,60255,60272,60273,60275,60274,60276,60277,60278,60279,60280,60281,60282,60283,60284,60285,60286,60287,60256,60257,60259,60258,60260,60261,60262,60263,60264,60265,60266,60267,60268,60269,60270,60271,60288,60289,60291,60290,60292,60293,60310,60279,60296,60297,60298,60299,60300,60301,60302,60303,60304,60305,60307,60306,60308,60309,60326,60295,60312,60313,60314,60315,60316,60317,60318,60319,60320,60321,60323,60322,60324,60325,60342,60311,60328,60329,60330,60331,60332,60333,60334,60335,60336,60337,60339,60338,60340,60341,60358,60327,60344,60345,60346,60347,60348,60349,60350,60351,60352,60353,60355,60354,60356,60357,60374,60343,60360,60361,60362,60363,60364,60365,60366,60367,60368,60369,60371,60370,60372,60373,60390,60359,60376,60377,60378,60379,60380,60381,60382,60383,60384,60385,60387,60386,60388,60389,60406,60375,60392,60393,60394,60395,60396,60397,60398,60399,60400,60401,60403,60402,60404,60405,60166,60391,60408,60409,60410,60411,60412,60413,60414,60415,59904,59905,59907,59906,59904,59909,59926,60151,59915,59913,59914,59915,59919,59917,59918,59919,59920,59921,59923,59922,59924,59925,59942,59911,59928,59929,59930,59931,59932,59933,59934,59935,59937,59938,59939,59940,59941,59942,59959,59928,59945,59946,59947,59948,59949,59950,59951,59936,59967,59952,59953,59954,59955,59956,59973,59942,59959,59960,59961,59962,59963,59964,59965,59966,59904,59969,59971,59970,59972,59973,59990,59959,60088,59977,59978,59979,60156,59981,59982,59983,59984,59985,59987,59986,59988,59989,60006,59975,59992,59993,59994,59995,59996,59997,59998,59999,60016,60017,60019,60018,60020,60021,60022,60023,60024,60025,60026,60027,60028,60029,60030,60031,60000,60001,60003,60002,60004,60005,60006,60007,60008,60009,60010,60011,60012,60013,60014,60015,60032,60033,60035,60034,60036,60037,60054,60023,60040,60041,60042,60043,60044,60045,60046,60047,60048,60049,60051,60050,60052,60053,60070,60039,60056,60057,60058,60059,60060,60061,60062,60063,60064,60065,60067,60066,60068,60069,60086,60055,60072,60073,60074,60075,60076,60077,60078,60079,60080,60081,60083,60082,60084,60085,60102,60071,60088,60089,60090,60091,60092,60093,60094,60095,60096,60097,60099,60098,60100,60101,60118,60087,60104,60105,60106,60107,60108,60109,60110,60111,60112,60113,60115,60114,60116,60117,60134,60103,60120,60121,60122,60123,60124,60125,60126,60127,60128,60129,60131,60130,60132,60133,60150,60119,60136,60137,60138,60139,60140,60141,60142,60143,60144,60145,60147,60146,60148,60149,59910,60135,60152,60153,60154,60155,60156,60157,60158,60159,60416,60417,60419,60418,60416,60421,60438,60663,60428,60425,60682,60171,60431,60429,60430,60431,60432,60433,60435,60434,60436,60437,60454,60423,60440,60441,60698,60187,60444,60445,60446,60447,60449,60450,60451,60452,60453,60454,60471,60440,60457,60458,60715,60204,60461,60462,60463,60448,60479,60464,60465,60466,60467,60468,60485,60454,60471,60472,60729,60218,60475,60476,60477,60478,60416,60481,60483,60482,60484,60485,60502,60471,60616,60489,60746,60235,60668,60493,60494,60495,60496,60497,60499,60498,60500,60501,60518,60487,60504,60505,60762,60251,60508,60509,60510,60511,60528,60529,60531,60530,60532,60533,60534,60535,60536,60537,60794,60283,60540,60541,60542,60543,60512,60513,60515,60514,60516,60517,60518,60519,60520,60521,60778,60267,60524,60525,60526,60527,57472,60545,60547,60546,59524,60549,60566,60535,60552,60553,60810,60299,61324,60557,60558,60559,60560,60561,60563,60562,60564,60565,60582,60551,60568,60569,60826,60315,60572,60573,60574,60575,60832,60833,60835,60834,60836,60837,60854,60823,60840,60841,60842,60843,60844,60845,60846,60847,60336,60337,60339,60338,60340,60341,60358,60327,60344,60345,60346,60347,60348,60349,60350,60351,60608,60609,60611,60610,60612,60613,60630,60599,60616,60617,60874,60363,60620,60621,60622,60623,60624,60625,60627,60626,60628,60629,60646,60615,60632,60633,60890,60379,60636,60637,60638,60639,60640,60641,60643,60642,60644,60645,60662,60631,60648,60649,60906,60395,60652,60653,60654,60655,60656,60657,60659,60658,60660,60661,60422,60647,60664,60665,60922,60411,60668,60669,60670,60671,60672,60673,60675,60674,60672,60677,60694,60919,60685,60681,60938,60427,60687,60685,60686,60687,60688,60689,60691,60690,60692,60693,60710,60679,60696,60697,60954,60443,60700,60701,60702,60703,60705,60706,60707,60708,60709,60710,60727,60696,60713,60714,60971,60460,60717,60718,60719,60704,60735,60720,60721,60722,60723,60724,60741,60710,60727,60728,60985,60474,60731,60732,60733,60734,60672,60737,60739,60738,60740,60741,60758,60727,60888,60745,61002,60491,60924,60749,60750,60751,60752,60753,60755,60754,60756,60757,60774,60743,60760,60761,61018,60507,60764,60765,60766,60767,60784,60785,60787,60786,60788,60789,60790,60791,60792,60793,61050,60539,60796,60797,60798,60799,60768,60769,60771,60770,60772,60773,60774,60775,60776,60777,61034,60523,60780,60781,60782,60783,57472,60801,60803,60802,59524,60805,60822,60791,60808,60809,61066,60555,61324,60813,60814,60815,60816,60817,60819,60818,60820,60821,60838,60807,60824,60825,61082,60571,60828,60829,60830,60831,61088,61089,61091,61090,61092,61093,61110,61079,61096,61097,61098,61099,61100,61101,61102,61103,60592,60593,60595,60594,60596,60597,60614,60583,60600,60601,60602,60603,60604,60605,60606,60607,60864,60865,60867,60866,60868,60869,60886,60855,60872,60873,61130,60619,60876,60877,60878,60879,60880,60881,60883,60882,60884,60885,60902,60871,60888,60889,61146,60635,60892,60893,60894,60895,60896,60897,60899,60898,60900,60901,60918,60887,60904,60905,61162,60651,60908,60909,60910,60911,60912,60913,60915,60914,60916,60917,60678,60903,60920,60921,61178,60667,60924,60925,60926,60927,60928,60929,60931,60930,60928,60933,60950,61175,60942,60937,61194,60683,60943,60941,60942,60943,60944,60945,60947,60946,60948,60949,60966,60935,60952,60953,61210,60699,60956,60957,60958,60959,60961,60962,60963,60964,60965,60966,60983,60952,60969,60970,61227,60716,60973,60974,60975,60960,60991,60976,60977,60978,60979,60980,60997,60966,60983,60984,61241,60730,60987,60988,60989,60990,60928,60993,60995,60994,60996,60997,61014,60983,61160,61001,61258,60747,61180,61005,61006,61007,61008,61009,61011,61010,61012,61013,61030,60999,61016,61017,61274,60763,61020,61021,61022,61023,61040,61041,61043,61042,61044,61045,61046,61047,61048,61049,61306,60795,61052,61053,61054,61055,61024,61025,61027,61026,61028,61029,61030,61031,61032,61033,61290,60779,61036,61037,61038,61039,57472,61057,61059,61058,59524,61061,61078,61047,61064,61065,61322,60811,61324,61069,61070,61071,61072,61073,61075,61074,61076,61077,61094,61063,61080,61081,61338,60827,61084,61085,61086,61087,61344,61345,61347,61346,61348,61349,61366,61335,61352,61353,61354,61355,61356,61357,61358,61359,60848,60849,60851,60850,60852,60853,60870,60839,60856,60857,60858,60859,60860,60861,60862,60863,61120,61121,61123,61122,61124,61125,61142,61111,61128,61129,61386,60875,61132,61133,61134,61135,61136,61137,61139,61138,61140,61141,61158,61127,61144,61145,61402,60891,61148,61149,61150,61151,61152,61153,61155,61154,61156,61157,61174,61143,61160,61161,61418,60907,61164,61165,61166,61167,61168,61169,61171,61170,61172,61173,60934,61159,61176,61177,61434,60923,61180,61181,61182,61183,61184,61185,61187,61186,61184,61189,61206,61431,61199,61193,57354,60939,61199,61197,61198,61199,61200,61201,61203,61202,61204,61205,61222,61191,61208,61209,57370,60955,61212,61213,61214,61215,61217,61218,61219,61220,61221,61222,61239,61208,61225,61226,57387,60972,61229,61230,61231,61216,61247,61232,61233,61234,61235,61236,61253,61222,61239,61240,57401,60986,61243,61244,61245,61246,61184,61249,61251,61250,61252,61253,61270,61239,61432,61257,57418,61003,61436,61261,61262,61263,61264,61265,61267,61266,61268,61269,61286,61255,61272,61273,57434,61019,61276,61277,61278,61279,61296,61297,61299,61298,61300,61301,61302,61303,61304,61305,57466,61051,61308,61309,61310,61311,61280,61281,61283,61282,61284,61285,61286,61287,61288,61289,57450,61035,61292,61293,61294,61295,57472,61313,61315,61314,59524,61317,61334,61303,61320,61321,57482,61067,61324,61325,61326,61327,61328,61329,61331,61330,61332,61333,61350,61319,61336,61337,57498,61083,61340,61341,61342,61343,57504,57505,57507,57506,57508,57509,57526,57495,57512,57513,57514,57515,57516,57517,57518,57519,61104,61105,61107,61106,61108,61109,61126,61095,61112,61113,61114,61115,61116,61117,61118,61119,61376,61377,61379,61378,61380,61381,61398,61367,61384,61385,57546,61131,61388,61389,61390,61391,61392,61393,61395,61394,61396,61397,61414,61383,61400,61401,57562,61147,61404,61405,61406,61407,61408,61409,61411,61410,61412,61413,61430,61399,61416,61417,57578,61163,61420,61421,61422,61423,61424,61425,61427,61426,61428,61429,61190,61415,61432,61433,57594,61179,61436,61437,61438,61439]);
